% ========= Metadata =========
   meta(name,abz5).
   meta(num_jobs,10).
   meta(num_machines,10).
   meta(num_operations,100).
   meta(optimum,1234).
   meta(upper_bound,1234).
   meta(lower_bound,1234).
% ==========================


machine(0..10).

%--- Job 0
job(0).
operation(0,0,4,88).
operation(0,1,8,68).
operation(0,2,6,94).
operation(0,3,5,99).
operation(0,4,1,67).
operation(0,5,2,89).
operation(0,6,9,77).
operation(0,7,7,99).
operation(0,8,0,86).
operation(0,9,3,92).

%--- Job 1
job(1).
operation(1,10,5,72).
operation(1,11,3,50).
operation(1,12,6,69).
operation(1,13,4,75).
operation(1,14,2,94).
operation(1,15,8,66).
operation(1,16,0,92).
operation(1,17,1,82).
operation(1,18,7,94).
operation(1,19,9,63).

%--- Job 2
job(2).
operation(2,20,9,83).
operation(2,21,8,61).
operation(2,22,0,83).
operation(2,23,1,65).
operation(2,24,6,64).
operation(2,25,5,85).
operation(2,26,7,78).
operation(2,27,4,85).
operation(2,28,2,55).
operation(2,29,3,77).

%--- Job 3
job(3).
operation(3,30,7,94).
operation(3,31,2,68).
operation(3,32,1,61).
operation(3,33,4,99).
operation(3,34,3,54).
operation(3,35,6,75).
operation(3,36,5,66).
operation(3,37,0,76).
operation(3,38,9,63).
operation(3,39,8,67).

%--- Job 4
job(4).
operation(4,40,3,69).
operation(4,41,4,88).
operation(4,42,9,82).
operation(4,43,8,95).
operation(4,44,0,99).
operation(4,45,2,67).
operation(4,46,6,95).
operation(4,47,5,68).
operation(4,48,7,67).
operation(4,49,1,86).

%--- Job 5
job(5).
operation(5,50,1,99).
operation(5,51,4,81).
operation(5,52,5,64).
operation(5,53,6,66).
operation(5,54,8,80).
operation(5,55,2,80).
operation(5,56,7,69).
operation(5,57,9,62).
operation(5,58,3,79).
operation(5,59,0,88).

%--- Job 6
job(6).
operation(6,60,7,50).
operation(6,61,1,86).
operation(6,62,4,97).
operation(6,63,3,96).
operation(6,64,0,95).
operation(6,65,8,97).
operation(6,66,2,66).
operation(6,67,5,99).
operation(6,68,6,52).
operation(6,69,9,71).

%--- Job 7
job(7).
operation(7,70,4,98).
operation(7,71,6,73).
operation(7,72,3,82).
operation(7,73,2,51).
operation(7,74,1,71).
operation(7,75,5,94).
operation(7,76,7,85).
operation(7,77,0,62).
operation(7,78,8,95).
operation(7,79,9,79).

%--- Job 8
job(8).
operation(8,80,0,94).
operation(8,81,6,71).
operation(8,82,3,81).
operation(8,83,7,85).
operation(8,84,1,66).
operation(8,85,2,90).
operation(8,86,4,76).
operation(8,87,5,58).
operation(8,88,8,93).
operation(8,89,9,97).

%--- Job 9
job(9).
operation(9,90,3,50).
operation(9,91,0,59).
operation(9,92,1,82).
operation(9,93,8,67).
operation(9,94,7,56).
operation(9,95,9,96).
operation(9,96,6,58).
operation(9,97,4,81).
operation(9,98,5,59).
operation(9,99,2,96).

