% ========= Metadata =========
   meta(name,ft10).
   meta(num_jobs,10).
   meta(num_machines,10).
   meta(num_operations,100).
   meta(optimum,930).
   meta(upper_bound,930).
   meta(lower_bound,930).
% ==========================


machine(0..10).

%--- Job 0
job(0).
operation(0,0,0,29).
operation(0,1,1,78).
operation(0,2,2,9).
operation(0,3,3,36).
operation(0,4,4,49).
operation(0,5,5,11).
operation(0,6,6,62).
operation(0,7,7,56).
operation(0,8,8,44).
operation(0,9,9,21).

%--- Job 1
job(1).
operation(1,10,0,43).
operation(1,11,2,90).
operation(1,12,4,75).
operation(1,13,9,11).
operation(1,14,3,69).
operation(1,15,1,28).
operation(1,16,6,46).
operation(1,17,5,46).
operation(1,18,7,72).
operation(1,19,8,30).

%--- Job 2
job(2).
operation(2,20,1,91).
operation(2,21,0,85).
operation(2,22,3,39).
operation(2,23,2,74).
operation(2,24,8,90).
operation(2,25,5,10).
operation(2,26,7,12).
operation(2,27,6,89).
operation(2,28,9,45).
operation(2,29,4,33).

%--- Job 3
job(3).
operation(3,30,1,81).
operation(3,31,2,95).
operation(3,32,0,71).
operation(3,33,4,99).
operation(3,34,6,9).
operation(3,35,8,52).
operation(3,36,7,85).
operation(3,37,3,98).
operation(3,38,9,22).
operation(3,39,5,43).

%--- Job 4
job(4).
operation(4,40,2,14).
operation(4,41,0,6).
operation(4,42,1,22).
operation(4,43,5,61).
operation(4,44,3,26).
operation(4,45,4,69).
operation(4,46,8,21).
operation(4,47,7,49).
operation(4,48,9,72).
operation(4,49,6,53).

%--- Job 5
job(5).
operation(5,50,2,84).
operation(5,51,1,2).
operation(5,52,5,52).
operation(5,53,3,95).
operation(5,54,8,48).
operation(5,55,9,72).
operation(5,56,0,47).
operation(5,57,6,65).
operation(5,58,4,6).
operation(5,59,7,25).

%--- Job 6
job(6).
operation(6,60,1,46).
operation(6,61,0,37).
operation(6,62,3,61).
operation(6,63,2,13).
operation(6,64,6,32).
operation(6,65,5,21).
operation(6,66,9,32).
operation(6,67,8,89).
operation(6,68,7,30).
operation(6,69,4,55).

%--- Job 7
job(7).
operation(7,70,2,31).
operation(7,71,0,86).
operation(7,72,1,46).
operation(7,73,5,74).
operation(7,74,4,32).
operation(7,75,6,88).
operation(7,76,8,19).
operation(7,77,9,48).
operation(7,78,7,36).
operation(7,79,3,79).

%--- Job 8
job(8).
operation(8,80,0,76).
operation(8,81,1,69).
operation(8,82,3,76).
operation(8,83,5,51).
operation(8,84,2,85).
operation(8,85,9,11).
operation(8,86,6,40).
operation(8,87,7,89).
operation(8,88,4,26).
operation(8,89,8,74).

%--- Job 9
job(9).
operation(9,90,1,85).
operation(9,91,0,13).
operation(9,92,2,61).
operation(9,93,6,7).
operation(9,94,8,64).
operation(9,95,9,76).
operation(9,96,5,47).
operation(9,97,3,52).
operation(9,98,4,90).
operation(9,99,7,45).

