% ========= Metadata =========
   meta(name,la14).
   meta(num_jobs,20).
   meta(num_machines,5).
   meta(num_operations,100).
   meta(optimum,1292).
   meta(upper_bound,1292).
   meta(lower_bound,1292).
% ==========================


machine(0..5).

%--- Job 0
job(0).
operation(0,0,3,5).
operation(0,1,4,58).
operation(0,2,2,44).
operation(0,3,0,9).
operation(0,4,1,58).

%--- Job 1
job(1).
operation(1,5,1,89).
operation(1,6,4,96).
operation(1,7,0,97).
operation(1,8,2,84).
operation(1,9,3,77).

%--- Job 2
job(2).
operation(2,10,2,81).
operation(2,11,3,85).
operation(2,12,1,87).
operation(2,13,4,39).
operation(2,14,0,77).

%--- Job 3
job(3).
operation(3,15,0,15).
operation(3,16,3,57).
operation(3,17,4,73).
operation(3,18,1,21).
operation(3,19,2,31).

%--- Job 4
job(4).
operation(4,20,2,48).
operation(4,21,4,71).
operation(4,22,3,70).
operation(4,23,0,40).
operation(4,24,1,49).

%--- Job 5
job(5).
operation(5,25,0,10).
operation(5,26,4,82).
operation(5,27,3,34).
operation(5,28,2,80).
operation(5,29,1,22).

%--- Job 6
job(6).
operation(6,30,2,17).
operation(6,31,0,55).
operation(6,32,1,91).
operation(6,33,4,75).
operation(6,34,3,7).

%--- Job 7
job(7).
operation(7,35,3,47).
operation(7,36,2,62).
operation(7,37,1,72).
operation(7,38,4,35).
operation(7,39,0,11).

%--- Job 8
job(8).
operation(8,40,1,90).
operation(8,41,2,94).
operation(8,42,4,50).
operation(8,43,0,64).
operation(8,44,3,75).

%--- Job 9
job(9).
operation(9,45,3,15).
operation(9,46,2,67).
operation(9,47,0,12).
operation(9,48,4,20).
operation(9,49,1,71).

%--- Job 10
job(10).
operation(10,50,4,93).
operation(10,51,2,29).
operation(10,52,0,52).
operation(10,53,1,57).
operation(10,54,3,68).

%--- Job 11
job(11).
operation(11,55,3,77).
operation(11,56,1,93).
operation(11,57,0,58).
operation(11,58,2,70).
operation(11,59,4,7).

%--- Job 12
job(12).
operation(12,60,1,63).
operation(12,61,3,27).
operation(12,62,0,95).
operation(12,63,4,6).
operation(12,64,2,82).

%--- Job 13
job(13).
operation(13,65,4,36).
operation(13,66,0,26).
operation(13,67,3,48).
operation(13,68,2,56).
operation(13,69,1,87).

%--- Job 14
job(14).
operation(14,70,2,36).
operation(14,71,1,8).
operation(14,72,4,15).
operation(14,73,3,76).
operation(14,74,0,36).

%--- Job 15
job(15).
operation(15,75,4,78).
operation(15,76,1,84).
operation(15,77,3,41).
operation(15,78,0,30).
operation(15,79,2,76).

%--- Job 16
job(16).
operation(16,80,1,78).
operation(16,81,0,75).
operation(16,82,4,88).
operation(16,83,3,13).
operation(16,84,2,81).

%--- Job 17
job(17).
operation(17,85,0,54).
operation(17,86,4,40).
operation(17,87,2,13).
operation(17,88,1,82).
operation(17,89,3,29).

%--- Job 18
job(18).
operation(18,90,1,26).
operation(18,91,4,82).
operation(18,92,0,52).
operation(18,93,3,6).
operation(18,94,2,6).

%--- Job 19
job(19).
operation(19,95,3,54).
operation(19,96,1,64).
operation(19,97,0,54).
operation(19,98,2,32).
operation(19,99,4,88).

