% ========= Metadata =========
   meta(name,la15).
   meta(num_jobs,20).
   meta(num_machines,5).
   meta(num_operations,100).
   meta(optimum,1207).
   meta(upper_bound,1207).
   meta(lower_bound,1207).
% ==========================


machine(0..5).

%--- Job 0
job(0).
operation(0,0,0,6).
operation(0,1,2,40).
operation(0,2,1,81).
operation(0,3,3,37).
operation(0,4,4,19).

%--- Job 1
job(1).
operation(1,5,2,40).
operation(1,6,3,32).
operation(1,7,0,55).
operation(1,8,4,81).
operation(1,9,1,9).

%--- Job 2
job(2).
operation(2,10,1,46).
operation(2,11,4,65).
operation(2,12,2,70).
operation(2,13,3,55).
operation(2,14,0,77).

%--- Job 3
job(3).
operation(3,15,2,21).
operation(3,16,4,65).
operation(3,17,0,64).
operation(3,18,3,25).
operation(3,19,1,15).

%--- Job 4
job(4).
operation(4,20,2,85).
operation(4,21,0,40).
operation(4,22,1,44).
operation(4,23,3,24).
operation(4,24,4,37).

%--- Job 5
job(5).
operation(5,25,0,89).
operation(5,26,4,29).
operation(5,27,1,83).
operation(5,28,3,31).
operation(5,29,2,84).

%--- Job 6
job(6).
operation(6,30,4,59).
operation(6,31,3,38).
operation(6,32,1,80).
operation(6,33,2,30).
operation(6,34,0,8).

%--- Job 7
job(7).
operation(7,35,0,80).
operation(7,36,2,56).
operation(7,37,1,77).
operation(7,38,4,41).
operation(7,39,3,97).

%--- Job 8
job(8).
operation(8,40,4,56).
operation(8,41,0,91).
operation(8,42,3,50).
operation(8,43,2,71).
operation(8,44,1,17).

%--- Job 9
job(9).
operation(9,45,1,40).
operation(9,46,0,88).
operation(9,47,4,59).
operation(9,48,2,7).
operation(9,49,3,80).

%--- Job 10
job(10).
operation(10,50,0,45).
operation(10,51,1,29).
operation(10,52,2,8).
operation(10,53,4,77).
operation(10,54,3,58).

%--- Job 11
job(11).
operation(11,55,2,36).
operation(11,56,0,54).
operation(11,57,3,96).
operation(11,58,1,9).
operation(11,59,4,10).

%--- Job 12
job(12).
operation(12,60,0,28).
operation(12,61,2,73).
operation(12,62,1,98).
operation(12,63,3,92).
operation(12,64,4,87).

%--- Job 13
job(13).
operation(13,65,0,70).
operation(13,66,3,86).
operation(13,67,2,27).
operation(13,68,1,99).
operation(13,69,4,96).

%--- Job 14
job(14).
operation(14,70,1,95).
operation(14,71,0,59).
operation(14,72,4,56).
operation(14,73,3,85).
operation(14,74,2,41).

%--- Job 15
job(15).
operation(15,75,1,81).
operation(15,76,2,92).
operation(15,77,4,32).
operation(15,78,0,52).
operation(15,79,3,39).

%--- Job 16
job(16).
operation(16,80,1,7).
operation(16,81,4,22).
operation(16,82,2,12).
operation(16,83,0,88).
operation(16,84,3,60).

%--- Job 17
job(17).
operation(17,85,3,45).
operation(17,86,0,93).
operation(17,87,2,69).
operation(17,88,4,49).
operation(17,89,1,27).

%--- Job 18
job(18).
operation(18,90,0,21).
operation(18,91,1,84).
operation(18,92,2,61).
operation(18,93,3,68).
operation(18,94,4,26).

%--- Job 19
job(19).
operation(19,95,1,82).
operation(19,96,2,33).
operation(19,97,4,71).
operation(19,98,0,99).
operation(19,99,3,44).

