% ========= Metadata =========
   meta(name,la22).
   meta(num_jobs,15).
   meta(num_machines,10).
   meta(num_operations,150).
   meta(optimum,927).
   meta(upper_bound,927).
   meta(lower_bound,927).
% ==========================


machine(0..10).

%--- Job 0
job(0).
operation(0,0,9,66).
operation(0,1,5,91).
operation(0,2,4,87).
operation(0,3,2,94).
operation(0,4,7,21).
operation(0,5,3,92).
operation(0,6,1,7).
operation(0,7,0,12).
operation(0,8,8,11).
operation(0,9,6,19).

%--- Job 1
job(1).
operation(1,10,3,13).
operation(1,11,2,20).
operation(1,12,4,7).
operation(1,13,1,14).
operation(1,14,9,66).
operation(1,15,0,75).
operation(1,16,6,77).
operation(1,17,5,16).
operation(1,18,7,95).
operation(1,19,8,7).

%--- Job 2
job(2).
operation(2,20,8,77).
operation(2,21,7,20).
operation(2,22,2,34).
operation(2,23,0,15).
operation(2,24,9,88).
operation(2,25,5,89).
operation(2,26,6,53).
operation(2,27,3,6).
operation(2,28,1,45).
operation(2,29,4,76).

%--- Job 3
job(3).
operation(3,30,3,27).
operation(3,31,2,74).
operation(3,32,6,88).
operation(3,33,4,62).
operation(3,34,7,52).
operation(3,35,8,69).
operation(3,36,5,9).
operation(3,37,9,98).
operation(3,38,0,52).
operation(3,39,1,88).

%--- Job 4
job(4).
operation(4,40,4,88).
operation(4,41,6,15).
operation(4,42,1,52).
operation(4,43,2,61).
operation(4,44,7,54).
operation(4,45,0,62).
operation(4,46,8,59).
operation(4,47,5,9).
operation(4,48,3,90).
operation(4,49,9,5).

%--- Job 5
job(5).
operation(5,50,6,71).
operation(5,51,0,41).
operation(5,52,4,38).
operation(5,53,3,53).
operation(5,54,7,91).
operation(5,55,8,68).
operation(5,56,1,50).
operation(5,57,5,78).
operation(5,58,2,23).
operation(5,59,9,72).

%--- Job 6
job(6).
operation(6,60,3,95).
operation(6,61,9,36).
operation(6,62,6,66).
operation(6,63,5,52).
operation(6,64,0,45).
operation(6,65,8,30).
operation(6,66,4,23).
operation(6,67,2,25).
operation(6,68,7,17).
operation(6,69,1,6).

%--- Job 7
job(7).
operation(7,70,4,65).
operation(7,71,1,8).
operation(7,72,8,85).
operation(7,73,0,71).
operation(7,74,7,65).
operation(7,75,6,28).
operation(7,76,5,88).
operation(7,77,3,76).
operation(7,78,9,27).
operation(7,79,2,95).

%--- Job 8
job(8).
operation(8,80,9,37).
operation(8,81,1,37).
operation(8,82,4,28).
operation(8,83,3,51).
operation(8,84,8,86).
operation(8,85,2,9).
operation(8,86,6,55).
operation(8,87,0,73).
operation(8,88,7,51).
operation(8,89,5,90).

%--- Job 9
job(9).
operation(9,90,3,39).
operation(9,91,2,15).
operation(9,92,6,83).
operation(9,93,9,44).
operation(9,94,7,53).
operation(9,95,0,16).
operation(9,96,4,46).
operation(9,97,5,24).
operation(9,98,1,25).
operation(9,99,8,82).

%--- Job 10
job(10).
operation(10,100,1,72).
operation(10,101,4,48).
operation(10,102,0,87).
operation(10,103,2,66).
operation(10,104,9,5).
operation(10,105,6,54).
operation(10,106,7,39).
operation(10,107,8,35).
operation(10,108,5,95).
operation(10,109,3,60).

%--- Job 11
job(11).
operation(11,110,1,46).
operation(11,111,3,20).
operation(11,112,0,97).
operation(11,113,2,21).
operation(11,114,9,46).
operation(11,115,7,37).
operation(11,116,8,19).
operation(11,117,4,59).
operation(11,118,6,34).
operation(11,119,5,55).

%--- Job 12
job(12).
operation(12,120,5,23).
operation(12,121,3,25).
operation(12,122,6,78).
operation(12,123,1,24).
operation(12,124,0,28).
operation(12,125,7,83).
operation(12,126,8,28).
operation(12,127,9,5).
operation(12,128,2,73).
operation(12,129,4,45).

%--- Job 13
job(13).
operation(13,130,1,37).
operation(13,131,0,53).
operation(13,132,7,87).
operation(13,133,4,38).
operation(13,134,3,71).
operation(13,135,5,29).
operation(13,136,9,12).
operation(13,137,8,33).
operation(13,138,6,55).
operation(13,139,2,12).

%--- Job 14
job(14).
operation(14,140,4,90).
operation(14,141,8,17).
operation(14,142,2,49).
operation(14,143,3,83).
operation(14,144,1,40).
operation(14,145,6,23).
operation(14,146,7,65).
operation(14,147,9,27).
operation(14,148,5,7).
operation(14,149,0,48).

