% ========= Metadata =========
   meta(name,la23).
   meta(num_jobs,15).
   meta(num_machines,10).
   meta(num_operations,150).
   meta(optimum,1032).
   meta(upper_bound,1032).
   meta(lower_bound,1032).
% ==========================


machine(0..10).

%--- Job 0
job(0).
operation(0,0,7,84).
operation(0,1,5,58).
operation(0,2,8,77).
operation(0,3,2,44).
operation(0,4,4,97).
operation(0,5,6,89).
operation(0,6,3,5).
operation(0,7,1,58).
operation(0,8,9,96).
operation(0,9,0,9).

%--- Job 1
job(1).
operation(1,10,6,21).
operation(1,11,1,87).
operation(1,12,4,15).
operation(1,13,5,39).
operation(1,14,2,81).
operation(1,15,3,85).
operation(1,16,7,31).
operation(1,17,8,57).
operation(1,18,9,73).
operation(1,19,0,77).

%--- Job 2
job(2).
operation(2,20,0,40).
operation(2,21,5,71).
operation(2,22,8,34).
operation(2,23,9,82).
operation(2,24,3,70).
operation(2,25,6,22).
operation(2,26,4,10).
operation(2,27,7,80).
operation(2,28,2,48).
operation(2,29,1,49).

%--- Job 3
job(3).
operation(3,30,5,75).
operation(3,31,2,17).
operation(3,32,3,7).
operation(3,33,6,72).
operation(3,34,4,11).
operation(3,35,7,62).
operation(3,36,8,47).
operation(3,37,9,35).
operation(3,38,1,91).
operation(3,39,0,55).

%--- Job 4
job(4).
operation(4,40,9,20).
operation(4,41,4,12).
operation(4,42,6,71).
operation(4,43,7,67).
operation(4,44,0,64).
operation(4,45,2,94).
operation(4,46,8,15).
operation(4,47,5,50).
operation(4,48,3,75).
operation(4,49,1,90).

%--- Job 5
job(5).
operation(5,50,6,93).
operation(5,51,5,93).
operation(5,52,1,57).
operation(5,53,7,70).
operation(5,54,8,77).
operation(5,55,4,58).
operation(5,56,0,52).
operation(5,57,2,29).
operation(5,58,9,7).
operation(5,59,3,68).

%--- Job 6
job(6).
operation(6,60,7,56).
operation(6,61,0,95).
operation(6,62,8,48).
operation(6,63,4,26).
operation(6,64,2,82).
operation(6,65,1,63).
operation(6,66,9,36).
operation(6,67,3,27).
operation(6,68,6,87).
operation(6,69,5,6).

%--- Job 7
job(7).
operation(7,70,3,76).
operation(7,71,5,15).
operation(7,72,9,78).
operation(7,73,1,8).
operation(7,74,8,41).
operation(7,75,2,36).
operation(7,76,4,30).
operation(7,77,6,84).
operation(7,78,0,36).
operation(7,79,7,76).

%--- Job 8
job(8).
operation(8,80,0,75).
operation(8,81,7,13).
operation(8,82,2,81).
operation(8,83,8,29).
operation(8,84,4,54).
operation(8,85,6,82).
operation(8,86,5,88).
operation(8,87,1,78).
operation(8,88,9,40).
operation(8,89,3,13).

%--- Job 9
job(9).
operation(9,90,2,6).
operation(9,91,1,26).
operation(9,92,7,32).
operation(9,93,6,64).
operation(9,94,4,54).
operation(9,95,0,52).
operation(9,96,5,82).
operation(9,97,3,6).
operation(9,98,9,88).
operation(9,99,8,54).

%--- Job 10
job(10).
operation(10,100,8,62).
operation(10,101,2,67).
operation(10,102,5,32).
operation(10,103,0,62).
operation(10,104,7,69).
operation(10,105,3,61).
operation(10,106,1,35).
operation(10,107,4,72).
operation(10,108,9,5).
operation(10,109,6,93).

%--- Job 11
job(11).
operation(11,110,2,78).
operation(11,111,9,90).
operation(11,112,0,85).
operation(11,113,1,72).
operation(11,114,8,64).
operation(11,115,6,63).
operation(11,116,3,11).
operation(11,117,7,82).
operation(11,118,5,88).
operation(11,119,4,7).

%--- Job 12
job(12).
operation(12,120,4,28).
operation(12,121,9,11).
operation(12,122,7,50).
operation(12,123,6,88).
operation(12,124,0,44).
operation(12,125,5,31).
operation(12,126,2,27).
operation(12,127,1,66).
operation(12,128,8,49).
operation(12,129,3,35).

%--- Job 13
job(13).
operation(13,130,2,14).
operation(13,131,5,39).
operation(13,132,6,56).
operation(13,133,4,62).
operation(13,134,3,97).
operation(13,135,9,66).
operation(13,136,7,69).
operation(13,137,1,7).
operation(13,138,8,47).
operation(13,139,0,76).

%--- Job 14
job(14).
operation(14,140,1,18).
operation(14,141,8,93).
operation(14,142,7,58).
operation(14,143,6,47).
operation(14,144,3,69).
operation(14,145,9,57).
operation(14,146,2,41).
operation(14,147,5,53).
operation(14,148,4,79).
operation(14,149,0,64).

