% ========= Metadata =========
   meta(name,la27).
   meta(num_jobs,20).
   meta(num_machines,10).
   meta(num_operations,200).
   meta(optimum,1235).
   meta(upper_bound,1235).
   meta(lower_bound,1235).
% ==========================


machine(0..10).

%--- Job 0
job(0).
operation(0,0,3,60).
operation(0,1,4,48).
operation(0,2,5,95).
operation(0,3,0,87).
operation(0,4,1,72).
operation(0,5,9,5).
operation(0,6,8,35).
operation(0,7,7,39).
operation(0,8,6,54).
operation(0,9,2,66).

%--- Job 1
job(1).
operation(1,10,7,37).
operation(1,11,6,34).
operation(1,12,0,97).
operation(1,13,5,55).
operation(1,14,2,21).
operation(1,15,3,20).
operation(1,16,4,59).
operation(1,17,9,46).
operation(1,18,8,19).
operation(1,19,1,46).

%--- Job 2
job(2).
operation(2,20,4,45).
operation(2,21,2,73).
operation(2,22,1,24).
operation(2,23,8,28).
operation(2,24,0,28).
operation(2,25,3,25).
operation(2,26,5,23).
operation(2,27,7,83).
operation(2,28,9,5).
operation(2,29,6,78).

%--- Job 3
job(3).
operation(3,30,0,53).
operation(3,31,2,12).
operation(3,32,9,12).
operation(3,33,1,37).
operation(3,34,8,33).
operation(3,35,3,71).
operation(3,36,6,55).
operation(3,37,5,29).
operation(3,38,7,87).
operation(3,39,4,38).

%--- Job 4
job(4).
operation(4,40,4,90).
operation(4,41,2,49).
operation(4,42,9,27).
operation(4,43,7,65).
operation(4,44,5,7).
operation(4,45,6,23).
operation(4,46,0,48).
operation(4,47,3,83).
operation(4,48,8,17).
operation(4,49,1,40).

%--- Job 5
job(5).
operation(5,50,3,85).
operation(5,51,4,25).
operation(5,52,2,84).
operation(5,53,6,64).
operation(5,54,9,13).
operation(5,55,1,66).
operation(5,56,7,46).
operation(5,57,8,59).
operation(5,58,0,62).
operation(5,59,5,19).

%--- Job 6
job(6).
operation(6,60,5,88).
operation(6,61,6,67).
operation(6,62,4,14).
operation(6,63,0,41).
operation(6,64,1,73).
operation(6,65,7,57).
operation(6,66,2,53).
operation(6,67,3,80).
operation(6,68,9,47).
operation(6,69,8,74).

%--- Job 7
job(7).
operation(7,70,1,78).
operation(7,71,5,64).
operation(7,72,4,63).
operation(7,73,6,46).
operation(7,74,3,84).
operation(7,75,0,84).
operation(7,76,8,28).
operation(7,77,9,52).
operation(7,78,7,26).
operation(7,79,2,41).

%--- Job 8
job(8).
operation(8,80,1,11).
operation(8,81,0,64).
operation(8,82,6,97).
operation(8,83,9,38).
operation(8,84,2,17).
operation(8,85,4,85).
operation(8,86,5,73).
operation(8,87,3,10).
operation(8,88,8,95).
operation(8,89,7,67).

%--- Job 9
job(9).
operation(9,90,3,93).
operation(9,91,2,95).
operation(9,92,7,43).
operation(9,93,1,65).
operation(9,94,8,32).
operation(9,95,0,59).
operation(9,96,6,85).
operation(9,97,5,46).
operation(9,98,9,85).
operation(9,99,4,60).

%--- Job 10
job(10).
operation(10,100,2,61).
operation(10,101,3,41).
operation(10,102,5,49).
operation(10,103,4,23).
operation(10,104,0,66).
operation(10,105,7,49).
operation(10,106,8,70).
operation(10,107,9,99).
operation(10,108,1,90).
operation(10,109,6,17).

%--- Job 11
job(11).
operation(11,110,4,13).
operation(11,111,7,7).
operation(11,112,1,98).
operation(11,113,8,57).
operation(11,114,0,73).
operation(11,115,3,73).
operation(11,116,2,68).
operation(11,117,5,40).
operation(11,118,9,98).
operation(11,119,6,9).

%--- Job 12
job(12).
operation(12,120,9,86).
operation(12,121,6,76).
operation(12,122,4,14).
operation(12,123,3,41).
operation(12,124,1,85).
operation(12,125,0,37).
operation(12,126,8,19).
operation(12,127,2,17).
operation(12,128,7,54).
operation(12,129,5,79).

%--- Job 13
job(13).
operation(13,130,1,40).
operation(13,131,2,53).
operation(13,132,7,97).
operation(13,133,5,87).
operation(13,134,8,96).
operation(13,135,4,84).
operation(13,136,3,16).
operation(13,137,6,66).
operation(13,138,9,52).
operation(13,139,0,95).

%--- Job 14
job(14).
operation(14,140,6,33).
operation(14,141,1,33).
operation(14,142,3,87).
operation(14,143,0,18).
operation(14,144,2,55).
operation(14,145,8,13).
operation(14,146,4,77).
operation(14,147,7,60).
operation(14,148,9,42).
operation(14,149,5,74).

%--- Job 15
job(15).
operation(15,150,7,92).
operation(15,151,5,91).
operation(15,152,8,79).
operation(15,153,2,54).
operation(15,154,4,69).
operation(15,155,6,79).
operation(15,156,3,33).
operation(15,157,1,61).
operation(15,158,9,39).
operation(15,159,0,16).

%--- Job 16
job(16).
operation(16,160,6,82).
operation(16,161,1,41).
operation(16,162,4,28).
operation(16,163,5,64).
operation(16,164,2,78).
operation(16,165,3,76).
operation(16,166,7,6).
operation(16,167,8,49).
operation(16,168,9,47).
operation(16,169,0,58).

%--- Job 17
job(17).
operation(17,170,0,52).
operation(17,171,5,42).
operation(17,172,8,24).
operation(17,173,9,91).
operation(17,174,3,47).
operation(17,175,6,88).
operation(17,176,4,91).
operation(17,177,7,52).
operation(17,178,2,28).
operation(17,179,1,35).

%--- Job 18
job(18).
operation(18,180,5,82).
operation(18,181,2,76).
operation(18,182,3,86).
operation(18,183,6,93).
operation(18,184,4,84).
operation(18,185,7,38).
operation(18,186,8,95).
operation(18,187,9,37).
operation(18,188,1,21).
operation(18,189,0,23).

%--- Job 19
job(19).
operation(19,190,9,77).
operation(19,191,4,8).
operation(19,192,6,42).
operation(19,193,7,64).
operation(19,194,0,70).
operation(19,195,2,45).
operation(19,196,8,45).
operation(19,197,5,28).
operation(19,198,3,67).
operation(19,199,1,86).

