% ========= Metadata =========
   meta(name,la30).
   meta(num_jobs,20).
   meta(num_machines,10).
   meta(num_operations,200).
   meta(optimum,1355).
   meta(upper_bound,1355).
   meta(lower_bound,1355).
% ==========================


machine(0..10).

%--- Job 0
job(0).
operation(0,0,6,32).
operation(0,1,3,16).
operation(0,2,1,33).
operation(0,3,8,12).
operation(0,4,7,70).
operation(0,5,4,10).
operation(0,6,9,75).
operation(0,7,0,82).
operation(0,8,5,88).
operation(0,9,2,20).

%--- Job 1
job(1).
operation(1,10,8,39).
operation(1,11,4,81).
operation(1,12,3,91).
operation(1,13,5,56).
operation(1,14,9,69).
operation(1,15,1,45).
operation(1,16,6,59).
operation(1,17,0,86).
operation(1,18,2,36).
operation(1,19,7,68).

%--- Job 2
job(2).
operation(2,20,3,84).
operation(2,21,2,57).
operation(2,22,7,41).
operation(2,23,5,73).
operation(2,24,4,81).
operation(2,25,0,88).
operation(2,26,8,38).
operation(2,27,9,17).
operation(2,28,6,83).
operation(2,29,1,5).

%--- Job 3
job(3).
operation(3,30,4,20).
operation(3,31,5,6).
operation(3,32,2,15).
operation(3,33,8,19).
operation(3,34,1,30).
operation(3,35,0,94).
operation(3,36,6,45).
operation(3,37,7,17).
operation(3,38,3,18).
operation(3,39,9,88).

%--- Job 4
job(4).
operation(4,40,9,24).
operation(4,41,6,49).
operation(4,42,5,16).
operation(4,43,4,11).
operation(4,44,3,60).
operation(4,45,7,5).
operation(4,46,8,63).
operation(4,47,1,25).
operation(4,48,2,15).
operation(4,49,0,45).

%--- Job 5
job(5).
operation(5,50,1,86).
operation(5,51,8,50).
operation(5,52,2,77).
operation(5,53,6,54).
operation(5,54,9,48).
operation(5,55,0,93).
operation(5,56,3,32).
operation(5,57,7,92).
operation(5,58,5,45).
operation(5,59,4,71).

%--- Job 6
job(6).
operation(6,60,5,86).
operation(6,61,6,90).
operation(6,62,3,78).
operation(6,63,9,88).
operation(6,64,2,57).
operation(6,65,0,32).
operation(6,66,7,57).
operation(6,67,8,86).
operation(6,68,4,71).
operation(6,69,1,39).

%--- Job 7
job(7).
operation(7,70,2,59).
operation(7,71,3,18).
operation(7,72,9,31).
operation(7,73,4,41).
operation(7,74,7,20).
operation(7,75,5,83).
operation(7,76,8,65).
operation(7,77,0,54).
operation(7,78,6,94).
operation(7,79,1,69).

%--- Job 8
job(8).
operation(8,80,3,47).
operation(8,81,4,79).
operation(8,82,6,76).
operation(8,83,0,59).
operation(8,84,1,72).
operation(8,85,2,8).
operation(8,86,9,30).
operation(8,87,5,73).
operation(8,88,7,57).
operation(8,89,8,84).

%--- Job 9
job(9).
operation(9,90,0,59).
operation(9,91,2,89).
operation(9,92,4,10).
operation(9,93,7,45).
operation(9,94,3,8).
operation(9,95,5,54).
operation(9,96,6,88).
operation(9,97,8,20).
operation(9,98,9,7).
operation(9,99,1,62).

%--- Job 10
job(10).
operation(10,100,5,63).
operation(10,101,6,9).
operation(10,102,4,77).
operation(10,103,3,37).
operation(10,104,2,5).
operation(10,105,8,13).
operation(10,106,9,79).
operation(10,107,1,24).
operation(10,108,7,10).
operation(10,109,0,82).

%--- Job 11
job(11).
operation(11,110,0,74).
operation(11,111,1,32).
operation(11,112,2,61).
operation(11,113,7,53).
operation(11,114,4,92).
operation(11,115,9,20).
operation(11,116,8,10).
operation(11,117,3,5).
operation(11,118,6,45).
operation(11,119,5,23).

%--- Job 12
job(12).
operation(12,120,2,85).
operation(12,121,9,51).
operation(12,122,0,61).
operation(12,123,5,99).
operation(12,124,4,37).
operation(12,125,6,94).
operation(12,126,1,98).
operation(12,127,8,65).
operation(12,128,3,33).
operation(12,129,7,75).

%--- Job 13
job(13).
operation(13,130,0,51).
operation(13,131,3,24).
operation(13,132,5,8).
operation(13,133,6,30).
operation(13,134,7,12).
operation(13,135,8,23).
operation(13,136,2,7).
operation(13,137,4,17).
operation(13,138,9,35).
operation(13,139,1,81).

%--- Job 14
job(14).
operation(14,140,1,71).
operation(14,141,5,42).
operation(14,142,8,68).
operation(14,143,2,31).
operation(14,144,6,29).
operation(14,145,3,63).
operation(14,146,4,65).
operation(14,147,9,70).
operation(14,148,7,27).
operation(14,149,0,93).

%--- Job 15
job(15).
operation(15,150,1,28).
operation(15,151,5,38).
operation(15,152,4,51).
operation(15,153,7,70).
operation(15,154,2,33).
operation(15,155,8,78).
operation(15,156,9,45).
operation(15,157,3,90).
operation(15,158,6,54).
operation(15,159,0,72).

%--- Job 16
job(16).
operation(16,160,0,18).
operation(16,161,2,90).
operation(16,162,4,25).
operation(16,163,6,92).
operation(16,164,8,85).
operation(16,165,5,35).
operation(16,166,7,29).
operation(16,167,1,81).
operation(16,168,9,80).
operation(16,169,3,59).

%--- Job 17
job(17).
operation(17,170,5,67).
operation(17,171,2,96).
operation(17,172,1,38).
operation(17,173,4,86).
operation(17,174,0,97).
operation(17,175,3,94).
operation(17,176,7,86).
operation(17,177,6,35).
operation(17,178,9,82).
operation(17,179,8,45).

%--- Job 18
job(18).
operation(18,180,2,92).
operation(18,181,8,51).
operation(18,182,4,59).
operation(18,183,6,52).
operation(18,184,5,8).
operation(18,185,9,70).
operation(18,186,1,75).
operation(18,187,3,54).
operation(18,188,7,60).
operation(18,189,0,33).

%--- Job 19
job(19).
operation(19,190,3,98).
operation(19,191,7,80).
operation(19,192,5,78).
operation(19,193,0,82).
operation(19,194,2,7).
operation(19,195,9,89).
operation(19,196,1,69).
operation(19,197,4,51).
operation(19,198,8,79).
operation(19,199,6,62).

