% ========= Metadata =========
   meta(name,la34).
   meta(num_jobs,30).
   meta(num_machines,10).
   meta(num_operations,300).
   meta(optimum,1721).
   meta(upper_bound,1721).
   meta(lower_bound,1721).
% ==========================


machine(0..10).

%--- Job 0
job(0).
operation(0,0,2,51).
operation(0,1,7,59).
operation(0,2,1,35).
operation(0,3,5,73).
operation(0,4,9,65).
operation(0,5,0,27).
operation(0,6,6,13).
operation(0,7,3,81).
operation(0,8,8,32).
operation(0,9,4,74).

%--- Job 1
job(1).
operation(1,10,4,64).
operation(1,11,7,33).
operation(1,12,5,75).
operation(1,13,2,33).
operation(1,14,8,10).
operation(1,15,0,28).
operation(1,16,3,38).
operation(1,17,6,53).
operation(1,18,9,49).
operation(1,19,1,55).

%--- Job 2
job(2).
operation(2,20,6,83).
operation(2,21,1,23).
operation(2,22,2,72).
operation(2,23,3,7).
operation(2,24,9,72).
operation(2,25,0,6).
operation(2,26,4,39).
operation(2,27,5,52).
operation(2,28,8,90).
operation(2,29,7,21).

%--- Job 3
job(3).
operation(3,30,3,82).
operation(3,31,1,23).
operation(3,32,2,93).
operation(3,33,4,78).
operation(3,34,6,88).
operation(3,35,7,53).
operation(3,36,9,28).
operation(3,37,8,65).
operation(3,38,5,21).
operation(3,39,0,61).

%--- Job 4
job(4).
operation(4,40,4,41).
operation(4,41,6,12).
operation(4,42,9,12).
operation(4,43,3,77).
operation(4,44,1,70).
operation(4,45,7,24).
operation(4,46,0,81).
operation(4,47,5,73).
operation(4,48,2,62).
operation(4,49,8,6).

%--- Job 5
job(5).
operation(5,50,4,98).
operation(5,51,3,28).
operation(5,52,6,42).
operation(5,53,9,72).
operation(5,54,0,15).
operation(5,55,8,15).
operation(5,56,5,94).
operation(5,57,2,33).
operation(5,58,1,51).
operation(5,59,7,99).

%--- Job 6
job(6).
operation(6,60,0,32).
operation(6,61,8,22).
operation(6,62,9,96).
operation(6,63,4,15).
operation(6,64,6,78).
operation(6,65,3,31).
operation(6,66,5,7).
operation(6,67,1,94).
operation(6,68,2,23).
operation(6,69,7,86).

%--- Job 7
job(7).
operation(7,70,7,93).
operation(7,71,2,97).
operation(7,72,3,43).
operation(7,73,5,73).
operation(7,74,0,24).
operation(7,75,8,68).
operation(7,76,9,88).
operation(7,77,1,42).
operation(7,78,4,35).
operation(7,79,6,72).

%--- Job 8
job(8).
operation(8,80,2,14).
operation(8,81,0,44).
operation(8,82,8,13).
operation(8,83,5,67).
operation(8,84,1,63).
operation(8,85,3,49).
operation(8,86,7,5).
operation(8,87,4,17).
operation(8,88,6,85).
operation(8,89,9,66).

%--- Job 9
job(9).
operation(9,90,7,82).
operation(9,91,9,15).
operation(9,92,3,72).
operation(9,93,4,26).
operation(9,94,0,8).
operation(9,95,1,68).
operation(9,96,6,21).
operation(9,97,8,45).
operation(9,98,2,99).
operation(9,99,5,27).

%--- Job 10
job(10).
operation(10,100,4,93).
operation(10,101,6,23).
operation(10,102,0,51).
operation(10,103,8,54).
operation(10,104,3,49).
operation(10,105,1,96).
operation(10,106,2,56).
operation(10,107,9,36).
operation(10,108,5,53).
operation(10,109,7,52).

%--- Job 11
job(11).
operation(11,110,8,60).
operation(11,111,0,14).
operation(11,112,4,70).
operation(11,113,9,55).
operation(11,114,1,23).
operation(11,115,5,83).
operation(11,116,3,38).
operation(11,117,2,24).
operation(11,118,7,37).
operation(11,119,6,48).

%--- Job 12
job(12).
operation(12,120,0,62).
operation(12,121,7,15).
operation(12,122,8,69).
operation(12,123,9,23).
operation(12,124,1,82).
operation(12,125,6,26).
operation(12,126,4,45).
operation(12,127,5,33).
operation(12,128,3,12).
operation(12,129,2,37).

%--- Job 13
job(13).
operation(13,130,6,72).
operation(13,131,1,9).
operation(13,132,7,15).
operation(13,133,5,28).
operation(13,134,8,92).
operation(13,135,9,12).
operation(13,136,0,59).
operation(13,137,3,64).
operation(13,138,4,87).
operation(13,139,2,73).

%--- Job 14
job(14).
operation(14,140,0,50).
operation(14,141,1,14).
operation(14,142,7,90).
operation(14,143,5,46).
operation(14,144,3,71).
operation(14,145,4,48).
operation(14,146,2,80).
operation(14,147,9,61).
operation(14,148,8,24).
operation(14,149,6,44).

%--- Job 15
job(15).
operation(15,150,0,22).
operation(15,151,9,94).
operation(15,152,5,16).
operation(15,153,3,73).
operation(15,154,2,54).
operation(15,155,8,54).
operation(15,156,4,46).
operation(15,157,1,97).
operation(15,158,6,61).
operation(15,159,7,75).

%--- Job 16
job(16).
operation(16,160,9,55).
operation(16,161,3,67).
operation(16,162,6,77).
operation(16,163,4,30).
operation(16,164,7,6).
operation(16,165,1,32).
operation(16,166,8,47).
operation(16,167,5,93).
operation(16,168,2,6).
operation(16,169,0,40).

%--- Job 17
job(17).
operation(17,170,1,30).
operation(17,171,3,98).
operation(17,172,7,79).
operation(17,173,0,22).
operation(17,174,6,79).
operation(17,175,2,7).
operation(17,176,8,36).
operation(17,177,9,36).
operation(17,178,5,9).
operation(17,179,4,92).

%--- Job 18
job(18).
operation(18,180,8,37).
operation(18,181,7,72).
operation(18,182,2,52).
operation(18,183,4,31).
operation(18,184,1,82).
operation(18,185,9,54).
operation(18,186,5,7).
operation(18,187,6,82).
operation(18,188,3,73).
operation(18,189,0,49).

%--- Job 19
job(19).
operation(19,190,1,73).
operation(19,191,3,83).
operation(19,192,7,45).
operation(19,193,2,76).
operation(19,194,4,43).
operation(19,195,9,29).
operation(19,196,0,35).
operation(19,197,5,92).
operation(19,198,8,39).
operation(19,199,6,28).

%--- Job 20
job(20).
operation(20,200,2,58).
operation(20,201,0,26).
operation(20,202,1,48).
operation(20,203,8,52).
operation(20,204,7,34).
operation(20,205,6,96).
operation(20,206,5,70).
operation(20,207,4,98).
operation(20,208,3,80).
operation(20,209,9,94).

%--- Job 21
job(21).
operation(21,210,1,70).
operation(21,211,8,23).
operation(21,212,5,26).
operation(21,213,4,14).
operation(21,214,6,90).
operation(21,215,2,93).
operation(21,216,3,21).
operation(21,217,0,42).
operation(21,218,7,18).
operation(21,219,9,36).

%--- Job 22
job(22).
operation(22,220,4,28).
operation(22,221,6,76).
operation(22,222,7,25).
operation(22,223,0,17).
operation(22,224,1,84).
operation(22,225,2,67).
operation(22,226,8,87).
operation(22,227,3,43).
operation(22,228,9,88).
operation(22,229,5,84).

%--- Job 23
job(23).
operation(23,230,7,30).
operation(23,231,3,91).
operation(23,232,8,52).
operation(23,233,4,80).
operation(23,234,0,21).
operation(23,235,5,8).
operation(23,236,9,37).
operation(23,237,2,15).
operation(23,238,6,12).
operation(23,239,1,92).

%--- Job 24
job(24).
operation(24,240,1,28).
operation(24,241,4,7).
operation(24,242,7,46).
operation(24,243,6,92).
operation(24,244,2,77).
operation(24,245,3,15).
operation(24,246,9,69).
operation(24,247,8,54).
operation(24,248,0,47).
operation(24,249,5,39).

%--- Job 25
job(25).
operation(25,250,9,50).
operation(25,251,5,44).
operation(25,252,2,64).
operation(25,253,8,38).
operation(25,254,4,93).
operation(25,255,6,33).
operation(25,256,7,75).
operation(25,257,0,41).
operation(25,258,1,24).
operation(25,259,3,5).

%--- Job 26
job(26).
operation(26,260,7,94).
operation(26,261,0,17).
operation(26,262,6,87).
operation(26,263,2,21).
operation(26,264,8,92).
operation(26,265,9,28).
operation(26,266,1,61).
operation(26,267,4,63).
operation(26,268,3,34).
operation(26,269,5,77).

%--- Job 27
job(27).
operation(27,270,3,72).
operation(27,271,8,98).
operation(27,272,9,5).
operation(27,273,4,28).
operation(27,274,2,9).
operation(27,275,5,95).
operation(27,276,6,64).
operation(27,277,1,43).
operation(27,278,0,50).
operation(27,279,7,96).

%--- Job 28
job(28).
operation(28,280,0,85).
operation(28,281,2,85).
operation(28,282,8,39).
operation(28,283,1,98).
operation(28,284,7,24).
operation(28,285,3,71).
operation(28,286,5,60).
operation(28,287,4,55).
operation(28,288,9,22).
operation(28,289,6,35).

%--- Job 29
job(29).
operation(29,290,3,78).
operation(29,291,6,49).
operation(29,292,2,46).
operation(29,293,1,11).
operation(29,294,0,90).
operation(29,295,5,20).
operation(29,296,9,34).
operation(29,297,7,6).
operation(29,298,4,70).
operation(29,299,8,74).

