% ========= Metadata =========
   meta(name,la35).
   meta(num_jobs,30).
   meta(num_machines,10).
   meta(num_operations,300).
   meta(optimum,1888).
   meta(upper_bound,1888).
   meta(lower_bound,1888).
% ==========================


machine(0..10).

%--- Job 0
job(0).
operation(0,0,0,66).
operation(0,1,2,84).
operation(0,2,3,26).
operation(0,3,7,29).
operation(0,4,9,94).
operation(0,5,6,98).
operation(0,6,8,7).
operation(0,7,5,98).
operation(0,8,1,45).
operation(0,9,4,43).

%--- Job 1
job(1).
operation(1,10,3,32).
operation(1,11,0,97).
operation(1,12,6,55).
operation(1,13,2,88).
operation(1,14,8,93).
operation(1,15,9,88).
operation(1,16,1,20).
operation(1,17,4,50).
operation(1,18,7,17).
operation(1,19,5,5).

%--- Job 2
job(2).
operation(2,20,4,43).
operation(2,21,3,68).
operation(2,22,8,47).
operation(2,23,9,68).
operation(2,24,1,57).
operation(2,25,6,20).
operation(2,26,5,81).
operation(2,27,2,60).
operation(2,28,7,94).
operation(2,29,0,62).

%--- Job 3
job(3).
operation(3,30,1,57).
operation(3,31,5,40).
operation(3,32,0,78).
operation(3,33,6,9).
operation(3,34,2,49).
operation(3,35,9,17).
operation(3,36,3,32).
operation(3,37,4,30).
operation(3,38,8,87).
operation(3,39,7,77).

%--- Job 4
job(4).
operation(4,40,0,52).
operation(4,41,4,30).
operation(4,42,3,48).
operation(4,43,5,48).
operation(4,44,1,26).
operation(4,45,9,17).
operation(4,46,6,93).
operation(4,47,8,97).
operation(4,48,7,49).
operation(4,49,2,89).

%--- Job 5
job(5).
operation(5,50,7,95).
operation(5,51,0,33).
operation(5,52,1,5).
operation(5,53,6,17).
operation(5,54,5,70).
operation(5,55,3,57).
operation(5,56,4,34).
operation(5,57,2,61).
operation(5,58,8,62).
operation(5,59,9,39).

%--- Job 6
job(6).
operation(6,60,7,97).
operation(6,61,5,92).
operation(6,62,1,31).
operation(6,63,8,5).
operation(6,64,2,79).
operation(6,65,4,5).
operation(6,66,3,67).
operation(6,67,0,5).
operation(6,68,9,78).
operation(6,69,6,60).

%--- Job 7
job(7).
operation(7,70,2,79).
operation(7,71,4,6).
operation(7,72,7,20).
operation(7,73,8,45).
operation(7,74,6,34).
operation(7,75,3,24).
operation(7,76,9,26).
operation(7,77,5,68).
operation(7,78,1,16).
operation(7,79,0,46).

%--- Job 8
job(8).
operation(8,80,7,58).
operation(8,81,9,50).
operation(8,82,2,19).
operation(8,83,8,93).
operation(8,84,6,49).
operation(8,85,3,25).
operation(8,86,5,85).
operation(8,87,4,50).
operation(8,88,0,93).
operation(8,89,1,26).

%--- Job 9
job(9).
operation(9,90,9,81).
operation(9,91,6,71).
operation(9,92,5,7).
operation(9,93,1,39).
operation(9,94,2,16).
operation(9,95,8,42).
operation(9,96,0,71).
operation(9,97,4,84).
operation(9,98,3,56).
operation(9,99,7,99).

%--- Job 10
job(10).
operation(10,100,8,9).
operation(10,101,0,86).
operation(10,102,9,6).
operation(10,103,3,71).
operation(10,104,6,97).
operation(10,105,5,85).
operation(10,106,4,16).
operation(10,107,2,42).
operation(10,108,7,81).
operation(10,109,1,81).

%--- Job 11
job(11).
operation(11,110,4,72).
operation(11,111,3,24).
operation(11,112,0,30).
operation(11,113,8,56).
operation(11,114,2,43).
operation(11,115,1,61).
operation(11,116,7,82).
operation(11,117,6,40).
operation(11,118,5,59).
operation(11,119,9,43).

%--- Job 12
job(12).
operation(12,120,9,43).
operation(12,121,1,13).
operation(12,122,6,70).
operation(12,123,7,93).
operation(12,124,0,95).
operation(12,125,8,12).
operation(12,126,4,15).
operation(12,127,2,78).
operation(12,128,5,97).
operation(12,129,3,14).

%--- Job 13
job(13).
operation(13,130,0,14).
operation(13,131,6,26).
operation(13,132,1,71).
operation(13,133,3,46).
operation(13,134,8,80).
operation(13,135,5,31).
operation(13,136,4,37).
operation(13,137,9,27).
operation(13,138,7,92).
operation(13,139,2,67).

%--- Job 14
job(14).
operation(14,140,2,12).
operation(14,141,0,43).
operation(14,142,5,96).
operation(14,143,6,7).
operation(14,144,3,45).
operation(14,145,7,20).
operation(14,146,1,13).
operation(14,147,9,29).
operation(14,148,4,60).
operation(14,149,8,33).

%--- Job 15
job(15).
operation(15,150,1,78).
operation(15,151,5,50).
operation(15,152,6,84).
operation(15,153,0,42).
operation(15,154,8,84).
operation(15,155,4,30).
operation(15,156,9,76).
operation(15,157,2,57).
operation(15,158,7,87).
operation(15,159,3,59).

%--- Job 16
job(16).
operation(16,160,4,49).
operation(16,161,7,50).
operation(16,162,1,15).
operation(16,163,8,13).
operation(16,164,0,93).
operation(16,165,6,50).
operation(16,166,9,32).
operation(16,167,5,59).
operation(16,168,3,10).
operation(16,169,2,35).

%--- Job 17
job(17).
operation(17,170,1,25).
operation(17,171,0,47).
operation(17,172,7,60).
operation(17,173,8,33).
operation(17,174,4,53).
operation(17,175,5,37).
operation(17,176,9,73).
operation(17,177,2,22).
operation(17,178,3,87).
operation(17,179,6,79).

%--- Job 18
job(18).
operation(18,180,0,84).
operation(18,181,6,83).
operation(18,182,1,71).
operation(18,183,5,68).
operation(18,184,9,89).
operation(18,185,8,11).
operation(18,186,3,60).
operation(18,187,4,50).
operation(18,188,2,33).
operation(18,189,7,97).

%--- Job 19
job(19).
operation(19,190,1,14).
operation(19,191,0,38).
operation(19,192,6,88).
operation(19,193,5,5).
operation(19,194,4,77).
operation(19,195,7,92).
operation(19,196,8,24).
operation(19,197,2,73).
operation(19,198,9,52).
operation(19,199,3,71).

%--- Job 20
job(20).
operation(20,200,7,62).
operation(20,201,9,19).
operation(20,202,6,38).
operation(20,203,3,15).
operation(20,204,8,64).
operation(20,205,2,64).
operation(20,206,4,8).
operation(20,207,1,61).
operation(20,208,0,19).
operation(20,209,5,33).

%--- Job 21
job(21).
operation(21,210,2,33).
operation(21,211,5,46).
operation(21,212,4,74).
operation(21,213,0,56).
operation(21,214,6,84).
operation(21,215,9,83).
operation(21,216,8,19).
operation(21,217,7,8).
operation(21,218,3,32).
operation(21,219,1,97).

%--- Job 22
job(22).
operation(22,220,4,50).
operation(22,221,3,71).
operation(22,222,6,50).
operation(22,223,2,97).
operation(22,224,9,8).
operation(22,225,0,17).
operation(22,226,7,19).
operation(22,227,8,92).
operation(22,228,5,54).
operation(22,229,1,52).

%--- Job 23
job(23).
operation(23,230,8,32).
operation(23,231,1,79).
operation(23,232,3,97).
operation(23,233,5,38).
operation(23,234,9,49).
operation(23,235,4,76).
operation(23,236,6,76).
operation(23,237,0,56).
operation(23,238,2,78).
operation(23,239,7,54).

%--- Job 24
job(24).
operation(24,240,5,13).
operation(24,241,3,5).
operation(24,242,2,25).
operation(24,243,0,86).
operation(24,244,1,95).
operation(24,245,9,28).
operation(24,246,6,78).
operation(24,247,8,24).
operation(24,248,7,10).
operation(24,249,4,39).

%--- Job 25
job(25).
operation(25,250,7,48).
operation(25,251,2,59).
operation(25,252,0,20).
operation(25,253,9,7).
operation(25,254,5,31).
operation(25,255,6,97).
operation(25,256,1,89).
operation(25,257,4,32).
operation(25,258,3,25).
operation(25,259,8,41).

%--- Job 26
job(26).
operation(26,260,5,87).
operation(26,261,0,18).
operation(26,262,9,48).
operation(26,263,2,43).
operation(26,264,1,30).
operation(26,265,6,97).
operation(26,266,7,47).
operation(26,267,8,65).
operation(26,268,3,69).
operation(26,269,4,27).

%--- Job 27
job(27).
operation(27,270,6,71).
operation(27,271,5,20).
operation(27,272,8,20).
operation(27,273,1,78).
operation(27,274,3,39).
operation(27,275,0,17).
operation(27,276,7,50).
operation(27,277,2,44).
operation(27,278,9,42).
operation(27,279,4,38).

%--- Job 28
job(28).
operation(28,280,0,50).
operation(28,281,9,42).
operation(28,282,3,72).
operation(28,283,5,7).
operation(28,284,1,77).
operation(28,285,7,58).
operation(28,286,4,78).
operation(28,287,2,89).
operation(28,288,6,70).
operation(28,289,8,36).

%--- Job 29
job(29).
operation(29,290,3,32).
operation(29,291,9,95).
operation(29,292,2,13).
operation(29,293,0,73).
operation(29,294,6,97).
operation(29,295,8,24).
operation(29,296,4,49).
operation(29,297,5,57).
operation(29,298,1,68).
operation(29,299,7,94).

