% ========= Metadata =========
   meta(name,orb08).
   meta(num_jobs,10).
   meta(num_machines,10).
   meta(num_operations,100).
   meta(optimum,899).
   meta(upper_bound,899).
   meta(lower_bound,899).
% ==========================


machine(0..10).

%--- Job 0
job(0).
operation(0,0,0,55).
operation(0,1,1,74).
operation(0,2,2,45).
operation(0,3,3,23).
operation(0,4,4,76).
operation(0,5,5,19).
operation(0,6,6,18).
operation(0,7,7,61).
operation(0,8,8,44).
operation(0,9,9,11).

%--- Job 1
job(1).
operation(1,10,0,63).
operation(1,11,1,43).
operation(1,12,2,51).
operation(1,13,3,18).
operation(1,14,4,42).
operation(1,15,7,11).
operation(1,16,6,29).
operation(1,17,5,52).
operation(1,18,9,29).
operation(1,19,8,88).

%--- Job 2
job(2).
operation(2,20,2,88).
operation(2,21,1,31).
operation(2,22,0,47).
operation(2,23,4,10).
operation(2,24,3,62).
operation(2,25,5,60).
operation(2,26,6,58).
operation(2,27,7,29).
operation(2,28,8,52).
operation(2,29,9,92).

%--- Job 3
job(3).
operation(3,30,2,16).
operation(3,31,1,71).
operation(3,32,0,55).
operation(3,33,4,55).
operation(3,34,3,9).
operation(3,35,7,49).
operation(3,36,6,83).
operation(3,37,5,54).
operation(3,38,9,7).
operation(3,39,8,57).

%--- Job 4
job(4).
operation(4,40,1,7).
operation(4,41,0,41).
operation(4,42,4,92).
operation(4,43,3,94).
operation(4,44,2,46).
operation(4,45,6,79).
operation(4,46,5,34).
operation(4,47,9,38).
operation(4,48,8,8).
operation(4,49,7,18).

%--- Job 5
job(5).
operation(5,50,1,25).
operation(5,51,0,5).
operation(5,52,4,89).
operation(5,53,3,94).
operation(5,54,2,14).
operation(5,55,6,94).
operation(5,56,5,20).
operation(5,57,9,23).
operation(5,58,8,44).
operation(5,59,7,39).

%--- Job 6
job(6).
operation(6,60,1,24).
operation(6,61,2,21).
operation(6,62,4,47).
operation(6,63,0,40).
operation(6,64,3,94).
operation(6,65,6,71).
operation(6,66,7,89).
operation(6,67,9,75).
operation(6,68,5,97).
operation(6,69,8,15).

%--- Job 7
job(7).
operation(7,70,1,5).
operation(7,71,2,7).
operation(7,72,4,74).
operation(7,73,0,28).
operation(7,74,3,72).
operation(7,75,5,61).
operation(7,76,7,9).
operation(7,77,8,53).
operation(7,78,9,32).
operation(7,79,6,97).

%--- Job 8
job(8).
operation(8,80,0,34).
operation(8,81,2,52).
operation(8,82,3,37).
operation(8,83,4,6).
operation(8,84,1,94).
operation(8,85,6,6).
operation(8,86,7,56).
operation(8,87,9,41).
operation(8,88,5,5).
operation(8,89,8,16).

%--- Job 9
job(9).
operation(9,90,0,77).
operation(9,91,2,74).
operation(9,92,3,82).
operation(9,93,4,10).
operation(9,94,1,29).
operation(9,95,5,15).
operation(9,96,7,51).
operation(9,97,8,65).
operation(9,98,9,37).
operation(9,99,6,21).

