% ========= Metadata =========
   meta(name,orb07).
   meta(num_jobs,10).
   meta(num_machines,10).
   meta(num_operations,100).
   meta(optimum,397).
   meta(upper_bound,397).
   meta(lower_bound,397).
% ==========================


machine(0..10).

%--- Job 0
job(0).
operation(0,0,0,32).
operation(0,1,1,14).
operation(0,2,2,15).
operation(0,3,3,37).
operation(0,4,4,18).
operation(0,5,5,43).
operation(0,6,6,19).
operation(0,7,7,27).
operation(0,8,8,28).
operation(0,9,9,31).

%--- Job 1
job(1).
operation(1,10,0,8).
operation(1,11,3,12).
operation(1,12,4,49).
operation(1,13,8,24).
operation(1,14,9,52).
operation(1,15,6,19).
operation(1,16,7,23).
operation(1,17,5,19).
operation(1,18,2,17).
operation(1,19,1,32).

%--- Job 2
job(2).
operation(2,20,0,25).
operation(2,21,7,19).
operation(2,22,3,27).
operation(2,23,2,45).
operation(2,24,6,21).
operation(2,25,4,15).
operation(2,26,1,13).
operation(2,27,5,16).
operation(2,28,8,43).
operation(2,29,9,19).

%--- Job 3
job(3).
operation(3,30,0,24).
operation(3,31,1,18).
operation(3,32,3,41).
operation(3,33,8,29).
operation(3,34,5,14).
operation(3,35,2,17).
operation(3,36,4,23).
operation(3,37,7,15).
operation(3,38,6,18).
operation(3,39,9,23).

%--- Job 4
job(4).
operation(4,40,0,27).
operation(4,41,6,29).
operation(4,42,1,39).
operation(4,43,3,21).
operation(4,44,5,15).
operation(4,45,2,15).
operation(4,46,9,25).
operation(4,47,7,26).
operation(4,48,8,44).
operation(4,49,4,20).

%--- Job 5
job(5).
operation(5,50,4,17).
operation(5,51,0,15).
operation(5,52,6,51).
operation(5,53,8,17).
operation(5,54,2,46).
operation(5,55,3,16).
operation(5,56,9,33).
operation(5,57,7,25).
operation(5,58,5,30).
operation(5,59,1,25).

%--- Job 6
job(6).
operation(6,60,4,15).
operation(6,61,3,31).
operation(6,62,0,25).
operation(6,63,9,12).
operation(6,64,2,13).
operation(6,65,1,51).
operation(6,66,8,19).
operation(6,67,7,21).
operation(6,68,6,12).
operation(6,69,5,26).

%--- Job 7
job(7).
operation(7,70,4,8).
operation(7,71,6,29).
operation(7,72,9,25).
operation(7,73,3,15).
operation(7,74,8,17).
operation(7,75,2,22).
operation(7,76,7,32).
operation(7,77,5,20).
operation(7,78,0,11).
operation(7,79,1,28).

%--- Job 8
job(8).
operation(8,80,2,41).
operation(8,81,6,10).
operation(8,82,8,32).
operation(8,83,7,5).
operation(8,84,4,21).
operation(8,85,9,59).
operation(8,86,3,26).
operation(8,87,1,10).
operation(8,88,5,16).
operation(8,89,0,29).

%--- Job 9
job(9).
operation(9,90,2,20).
operation(9,91,9,7).
operation(9,92,5,44).
operation(9,93,8,22).
operation(9,94,6,33).
operation(9,95,3,25).
operation(9,96,7,29).
operation(9,97,4,12).
operation(9,98,1,14).
operation(9,99,0,0).

