% ========= Metadata =========
   meta(name,swv03).
   meta(num_jobs,20).
   meta(num_machines,10).
   meta(num_operations,200).
   meta(optimum,1398).
   meta(upper_bound,1398).
   meta(lower_bound,1398).
% ==========================


machine(0..10).

%--- Job 0
job(0).
operation(0,0,2,19).
operation(0,1,0,30).
operation(0,2,1,68).
operation(0,3,4,55).
operation(0,4,3,24).
operation(0,5,8,34).
operation(0,6,7,72).
operation(0,7,5,32).
operation(0,8,9,62).
operation(0,9,6,45).

%--- Job 1
job(1).
operation(1,10,2,63).
operation(1,11,1,11).
operation(1,12,4,65).
operation(1,13,3,16).
operation(1,14,0,67).
operation(1,15,9,95).
operation(1,16,8,23).
operation(1,17,7,82).
operation(1,18,6,52).
operation(1,19,5,53).

%--- Job 2
job(2).
operation(2,20,2,19).
operation(2,21,4,17).
operation(2,22,1,79).
operation(2,23,3,49).
operation(2,24,0,12).
operation(2,25,7,41).
operation(2,26,9,67).
operation(2,27,8,40).
operation(2,28,6,25).
operation(2,29,5,42).

%--- Job 3
job(3).
operation(3,30,0,42).
operation(3,31,2,71).
operation(3,32,3,27).
operation(3,33,4,95).
operation(3,34,1,19).
operation(3,35,5,48).
operation(3,36,8,100).
operation(3,37,6,31).
operation(3,38,7,25).
operation(3,39,9,38).

%--- Job 4
job(4).
operation(4,40,3,1).
operation(4,41,1,100).
operation(4,42,4,68).
operation(4,43,0,94).
operation(4,44,2,89).
operation(4,45,5,86).
operation(4,46,7,35).
operation(4,47,9,29).
operation(4,48,8,56).
operation(4,49,6,55).

%--- Job 5
job(5).
operation(5,50,4,93).
operation(5,51,1,53).
operation(5,52,2,4).
operation(5,53,3,48).
operation(5,54,0,57).
operation(5,55,8,99).
operation(5,56,7,67).
operation(5,57,5,86).
operation(5,58,6,80).
operation(5,59,9,60).

%--- Job 6
job(6).
operation(6,60,4,82).
operation(6,61,1,95).
operation(6,62,2,12).
operation(6,63,0,60).
operation(6,64,3,80).
operation(6,65,8,88).
operation(6,66,7,5).
operation(6,67,6,81).
operation(6,68,9,52).
operation(6,69,5,69).

%--- Job 7
job(7).
operation(7,70,3,79).
operation(7,71,1,31).
operation(7,72,4,63).
operation(7,73,0,28).
operation(7,74,2,64).
operation(7,75,8,63).
operation(7,76,5,29).
operation(7,77,7,75).
operation(7,78,9,18).
operation(7,79,6,33).

%--- Job 8
job(8).
operation(8,80,4,9).
operation(8,81,1,64).
operation(8,82,2,31).
operation(8,83,0,13).
operation(8,84,3,33).
operation(8,85,9,82).
operation(8,86,6,79).
operation(8,87,5,30).
operation(8,88,7,84).
operation(8,89,8,20).

%--- Job 9
job(9).
operation(9,90,2,14).
operation(9,91,0,56).
operation(9,92,1,95).
operation(9,93,4,34).
operation(9,94,3,13).
operation(9,95,6,16).
operation(9,96,5,44).
operation(9,97,7,45).
operation(9,98,8,62).
operation(9,99,9,86).

%--- Job 10
job(10).
operation(10,100,4,66).
operation(10,101,3,9).
operation(10,102,2,66).
operation(10,103,1,46).
operation(10,104,0,12).
operation(10,105,5,10).
operation(10,106,7,58).
operation(10,107,6,6).
operation(10,108,8,62).
operation(10,109,9,17).

%--- Job 11
job(11).
operation(11,110,4,89).
operation(11,111,1,52).
operation(11,112,2,37).
operation(11,113,3,74).
operation(11,114,0,7).
operation(11,115,8,43).
operation(11,116,5,96).
operation(11,117,7,89).
operation(11,118,6,21).
operation(11,119,9,66).

%--- Job 12
job(12).
operation(12,120,1,73).
operation(12,121,3,68).
operation(12,122,2,5).
operation(12,123,4,49).
operation(12,124,0,67).
operation(12,125,9,23).
operation(12,126,7,7).
operation(12,127,5,44).
operation(12,128,8,30).
operation(12,129,6,29).

%--- Job 13
job(13).
operation(13,130,2,21).
operation(13,131,0,68).
operation(13,132,1,88).
operation(13,133,4,75).
operation(13,134,3,64).
operation(13,135,6,6).
operation(13,136,8,72).
operation(13,137,7,66).
operation(13,138,9,66).
operation(13,139,5,56).

%--- Job 14
job(14).
operation(14,140,1,24).
operation(14,141,4,25).
operation(14,142,2,69).
operation(14,143,0,27).
operation(14,144,3,51).
operation(14,145,9,60).
operation(14,146,8,26).
operation(14,147,6,45).
operation(14,148,5,77).
operation(14,149,7,93).

%--- Job 15
job(15).
operation(15,150,2,19).
operation(15,151,3,17).
operation(15,152,1,82).
operation(15,153,4,75).
operation(15,154,0,34).
operation(15,155,5,67).
operation(15,156,9,89).
operation(15,157,6,91).
operation(15,158,7,13).
operation(15,159,8,35).

%--- Job 16
job(16).
operation(16,160,4,2).
operation(16,161,0,21).
operation(16,162,3,83).
operation(16,163,1,19).
operation(16,164,2,65).
operation(16,165,6,65).
operation(16,166,8,8).
operation(16,167,9,68).
operation(16,168,7,60).
operation(16,169,5,7).

%--- Job 17
job(17).
operation(17,170,1,63).
operation(17,171,3,49).
operation(17,172,2,4).
operation(17,173,4,2).
operation(17,174,0,50).
operation(17,175,9,99).
operation(17,176,5,27).
operation(17,177,6,68).
operation(17,178,8,46).
operation(17,179,7,89).

%--- Job 18
job(18).
operation(18,180,0,48).
operation(18,181,4,45).
operation(18,182,3,100).
operation(18,183,2,66).
operation(18,184,1,30).
operation(18,185,6,58).
operation(18,186,7,73).
operation(18,187,9,94).
operation(18,188,5,36).
operation(18,189,8,5).

%--- Job 19
job(19).
operation(19,190,2,36).
operation(19,191,0,53).
operation(19,192,4,56).
operation(19,193,3,57).
operation(19,194,1,77).
operation(19,195,9,7).
operation(19,196,6,59).
operation(19,197,8,8).
operation(19,198,5,15).
operation(19,199,7,23).

