% ========= Metadata =========
   meta(name,swv16).
   meta(num_jobs,50).
   meta(num_machines,10).
   meta(num_operations,500).
   meta(optimum,2924).
   meta(upper_bound,2924).
   meta(lower_bound,2924).
% ==========================


machine(0..10).

%--- Job 0
job(0).
operation(0,0,1,55).
operation(0,1,3,46).
operation(0,2,5,71).
operation(0,3,8,29).
operation(0,4,0,47).
operation(0,5,2,12).
operation(0,6,7,57).
operation(0,7,4,79).
operation(0,8,6,91).
operation(0,9,9,30).

%--- Job 1
job(1).
operation(1,10,2,96).
operation(1,11,6,94).
operation(1,12,8,98).
operation(1,13,0,55).
operation(1,14,3,10).
operation(1,15,1,95).
operation(1,16,5,95).
operation(1,17,7,37).
operation(1,18,9,82).
operation(1,19,4,2).

%--- Job 2
job(2).
operation(2,20,6,43).
operation(2,21,3,93).
operation(2,22,8,30).
operation(2,23,2,41).
operation(2,24,0,23).
operation(2,25,1,60).
operation(2,26,7,14).
operation(2,27,4,15).
operation(2,28,5,42).
operation(2,29,9,56).

%--- Job 3
job(3).
operation(3,30,0,45).
operation(3,31,6,85).
operation(3,32,2,59).
operation(3,33,7,76).
operation(3,34,1,93).
operation(3,35,9,62).
operation(3,36,4,33).
operation(3,37,8,46).
operation(3,38,5,33).
operation(3,39,3,35).

%--- Job 4
job(4).
operation(4,40,2,45).
operation(4,41,3,36).
operation(4,42,8,11).
operation(4,43,6,96).
operation(4,44,7,96).
operation(4,45,1,8).
operation(4,46,0,75).
operation(4,47,5,6).
operation(4,48,4,13).
operation(4,49,9,2).

%--- Job 5
job(5).
operation(5,50,9,51).
operation(5,51,7,75).
operation(5,52,0,4).
operation(5,53,3,13).
operation(5,54,5,12).
operation(5,55,1,4).
operation(5,56,2,38).
operation(5,57,6,30).
operation(5,58,4,42).
operation(5,59,8,28).

%--- Job 6
job(6).
operation(6,60,9,58).
operation(6,61,4,33).
operation(6,62,6,77).
operation(6,63,2,11).
operation(6,64,3,37).
operation(6,65,8,64).
operation(6,66,5,94).
operation(6,67,7,89).
operation(6,68,1,96).
operation(6,69,0,93).

%--- Job 7
job(7).
operation(7,70,6,37).
operation(7,71,3,67).
operation(7,72,0,88).
operation(7,73,9,92).
operation(7,74,8,19).
operation(7,75,4,27).
operation(7,76,7,46).
operation(7,77,1,58).
operation(7,78,2,60).
operation(7,79,5,55).

%--- Job 8
job(8).
operation(8,80,4,60).
operation(8,81,2,88).
operation(8,82,0,23).
operation(8,83,5,69).
operation(8,84,8,60).
operation(8,85,1,32).
operation(8,86,7,4).
operation(8,87,6,56).
operation(8,88,9,25).
operation(8,89,3,14).

%--- Job 9
job(9).
operation(9,90,2,98).
operation(9,91,5,56).
operation(9,92,1,68).
operation(9,93,6,63).
operation(9,94,7,61).
operation(9,95,3,78).
operation(9,96,8,45).
operation(9,97,0,62).
operation(9,98,4,31).
operation(9,99,9,70).

%--- Job 10
job(10).
operation(10,100,7,66).
operation(10,101,8,80).
operation(10,102,0,18).
operation(10,103,3,97).
operation(10,104,9,47).
operation(10,105,5,38).
operation(10,106,1,26).
operation(10,107,2,8).
operation(10,108,6,90).
operation(10,109,4,90).

%--- Job 11
job(11).
operation(11,110,0,16).
operation(11,111,7,6).
operation(11,112,4,53).
operation(11,113,6,86).
operation(11,114,5,81).
operation(11,115,8,49).
operation(11,116,3,90).
operation(11,117,2,57).
operation(11,118,1,34).
operation(11,119,9,56).

%--- Job 12
job(12).
operation(12,120,2,69).
operation(12,121,8,65).
operation(12,122,5,20).
operation(12,123,4,15).
operation(12,124,1,61).
operation(12,125,3,71).
operation(12,126,6,71).
operation(12,127,9,58).
operation(12,128,0,24).
operation(12,129,7,71).

%--- Job 13
job(13).
operation(13,130,4,84).
operation(13,131,5,20).
operation(13,132,9,58).
operation(13,133,0,55).
operation(13,134,8,98).
operation(13,135,2,75).
operation(13,136,7,46).
operation(13,137,3,81).
operation(13,138,1,71).
operation(13,139,6,46).

%--- Job 14
job(14).
operation(14,140,5,6).
operation(14,141,6,58).
operation(14,142,7,90).
operation(14,143,1,54).
operation(14,144,9,73).
operation(14,145,0,92).
operation(14,146,4,39).
operation(14,147,3,23).
operation(14,148,2,100).
operation(14,149,8,18).

%--- Job 15
job(15).
operation(15,150,2,32).
operation(15,151,5,58).
operation(15,152,6,97).
operation(15,153,1,49).
operation(15,154,3,61).
operation(15,155,0,69).
operation(15,156,8,2).
operation(15,157,4,3).
operation(15,158,9,32).
operation(15,159,7,46).

%--- Job 16
job(16).
operation(16,160,0,78).
operation(16,161,7,14).
operation(16,162,4,98).
operation(16,163,3,26).
operation(16,164,8,25).
operation(16,165,9,45).
operation(16,166,6,12).
operation(16,167,2,98).
operation(16,168,1,99).
operation(16,169,5,69).

%--- Job 17
job(17).
operation(17,170,2,50).
operation(17,171,1,95).
operation(17,172,4,82).
operation(17,173,9,25).
operation(17,174,0,68).
operation(17,175,8,83).
operation(17,176,5,36).
operation(17,177,7,78).
operation(17,178,3,35).
operation(17,179,6,27).

%--- Job 18
job(18).
operation(18,180,6,29).
operation(18,181,7,20).
operation(18,182,8,55).
operation(18,183,4,14).
operation(18,184,2,66).
operation(18,185,5,52).
operation(18,186,0,75).
operation(18,187,9,63).
operation(18,188,1,93).
operation(18,189,3,64).

%--- Job 19
job(19).
operation(19,190,1,11).
operation(19,191,0,18).
operation(19,192,9,42).
operation(19,193,4,81).
operation(19,194,7,2).
operation(19,195,2,39).
operation(19,196,3,83).
operation(19,197,6,11).
operation(19,198,5,38).
operation(19,199,8,52).

%--- Job 20
job(20).
operation(20,200,4,11).
operation(20,201,8,99).
operation(20,202,9,2).
operation(20,203,7,10).
operation(20,204,3,91).
operation(20,205,5,83).
operation(20,206,6,61).
operation(20,207,0,21).
operation(20,208,2,69).
operation(20,209,1,8).

%--- Job 21
job(21).
operation(21,210,9,11).
operation(21,211,7,65).
operation(21,212,1,14).
operation(21,213,2,85).
operation(21,214,3,5).
operation(21,215,8,5).
operation(21,216,5,11).
operation(21,217,4,47).
operation(21,218,6,67).
operation(21,219,0,41).

%--- Job 22
job(22).
operation(22,220,9,60).
operation(22,221,7,9).
operation(22,222,8,16).
operation(22,223,2,4).
operation(22,224,5,34).
operation(22,225,6,2).
operation(22,226,4,30).
operation(22,227,1,32).
operation(22,228,0,51).
operation(22,229,3,51).

%--- Job 23
job(23).
operation(23,230,9,31).
operation(23,231,2,41).
operation(23,232,1,13).
operation(23,233,6,28).
operation(23,234,5,97).
operation(23,235,3,8).
operation(23,236,7,42).
operation(23,237,4,95).
operation(23,238,8,46).
operation(23,239,0,93).

%--- Job 24
job(24).
operation(24,240,4,1).
operation(24,241,6,91).
operation(24,242,8,49).
operation(24,243,3,75).
operation(24,244,1,19).
operation(24,245,7,100).
operation(24,246,0,58).
operation(24,247,2,14).
operation(24,248,5,34).
operation(24,249,9,82).

%--- Job 25
job(25).
operation(25,250,3,28).
operation(25,251,5,68).
operation(25,252,9,30).
operation(25,253,7,68).
operation(25,254,1,10).
operation(25,255,6,20).
operation(25,256,8,47).
operation(25,257,4,51).
operation(25,258,0,44).
operation(25,259,2,32).

%--- Job 26
job(26).
operation(26,260,9,86).
operation(26,261,3,9).
operation(26,262,1,80).
operation(26,263,0,89).
operation(26,264,5,93).
operation(26,265,4,12).
operation(26,266,8,13).
operation(26,267,7,10).
operation(26,268,6,18).
operation(26,269,2,4).

%--- Job 27
job(27).
operation(27,270,0,22).
operation(27,271,5,12).
operation(27,272,8,95).
operation(27,273,4,24).
operation(27,274,3,30).
operation(27,275,1,81).
operation(27,276,2,21).
operation(27,277,7,28).
operation(27,278,9,100).
operation(27,279,6,27).

%--- Job 28
job(28).
operation(28,280,1,87).
operation(28,281,0,68).
operation(28,282,2,64).
operation(28,283,3,33).
operation(28,284,7,59).
operation(28,285,5,95).
operation(28,286,6,1).
operation(28,287,9,14).
operation(28,288,8,82).
operation(28,289,4,43).

%--- Job 29
job(29).
operation(29,290,2,14).
operation(29,291,6,98).
operation(29,292,0,86).
operation(29,293,1,85).
operation(29,294,8,85).
operation(29,295,5,12).
operation(29,296,4,99).
operation(29,297,7,8).
operation(29,298,3,21).
operation(29,299,9,7).

%--- Job 30
job(30).
operation(30,300,5,47).
operation(30,301,9,90).
operation(30,302,0,88).
operation(30,303,1,52).
operation(30,304,8,43).
operation(30,305,4,62).
operation(30,306,7,33).
operation(30,307,3,51).
operation(30,308,6,97).
operation(30,309,2,22).

%--- Job 31
job(31).
operation(31,310,2,59).
operation(31,311,7,26).
operation(31,312,4,76).
operation(31,313,0,26).
operation(31,314,3,71).
operation(31,315,8,59).
operation(31,316,1,73).
operation(31,317,9,70).
operation(31,318,5,57).
operation(31,319,6,10).

%--- Job 32
job(32).
operation(32,320,6,92).
operation(32,321,2,10).
operation(32,322,9,45).
operation(32,323,0,11).
operation(32,324,1,53).
operation(32,325,3,35).
operation(32,326,8,76).
operation(32,327,4,83).
operation(32,328,7,55).
operation(32,329,5,79).

%--- Job 33
job(33).
operation(33,330,9,96).
operation(33,331,4,3).
operation(33,332,3,92).
operation(33,333,7,67).
operation(33,334,6,60).
operation(33,335,8,35).
operation(33,336,5,70).
operation(33,337,0,52).
operation(33,338,2,39).
operation(33,339,1,94).

%--- Job 34
job(34).
operation(34,340,4,65).
operation(34,341,0,17).
operation(34,342,9,26).
operation(34,343,7,46).
operation(34,344,5,81).
operation(34,345,1,42).
operation(34,346,2,64).
operation(34,347,6,46).
operation(34,348,3,96).
operation(34,349,8,59).

%--- Job 35
job(35).
operation(35,350,9,6).
operation(35,351,3,21).
operation(35,352,8,46).
operation(35,353,0,82).
operation(35,354,2,74).
operation(35,355,5,56).
operation(35,356,7,94).
operation(35,357,6,83).
operation(35,358,4,63).
operation(35,359,1,21).

%--- Job 36
job(36).
operation(36,360,6,89).
operation(36,361,5,23).
operation(36,362,8,78).
operation(36,363,2,33).
operation(36,364,9,4).
operation(36,365,7,97).
operation(36,366,3,60).
operation(36,367,1,29).
operation(36,368,0,79).
operation(36,369,4,93).

%--- Job 37
job(37).
operation(37,370,0,46).
operation(37,371,1,46).
operation(37,372,4,20).
operation(37,373,7,91).
operation(37,374,2,76).
operation(37,375,9,83).
operation(37,376,3,14).
operation(37,377,6,61).
operation(37,378,5,84).
operation(37,379,8,76).

%--- Job 38
job(38).
operation(38,380,7,82).
operation(38,381,8,43).
operation(38,382,6,76).
operation(38,383,1,36).
operation(38,384,0,27).
operation(38,385,9,93).
operation(38,386,5,71).
operation(38,387,4,81).
operation(38,388,2,45).
operation(38,389,3,62).

%--- Job 39
job(39).
operation(39,390,7,51).
operation(39,391,9,27).
operation(39,392,5,12).
operation(39,393,6,52).
operation(39,394,4,85).
operation(39,395,8,66).
operation(39,396,0,100).
operation(39,397,3,44).
operation(39,398,2,82).
operation(39,399,1,36).

%--- Job 40
job(40).
operation(40,400,3,75).
operation(40,401,7,13).
operation(40,402,6,63).
operation(40,403,1,78).
operation(40,404,4,1).
operation(40,405,8,60).
operation(40,406,2,24).
operation(40,407,5,10).
operation(40,408,9,56).
operation(40,409,0,3).

%--- Job 41
job(41).
operation(41,410,5,48).
operation(41,411,4,32).
operation(41,412,2,82).
operation(41,413,0,1).
operation(41,414,1,2).
operation(41,415,7,35).
operation(41,416,3,16).
operation(41,417,9,67).
operation(41,418,8,74).
operation(41,419,6,39).

%--- Job 42
job(42).
operation(42,420,7,24).
operation(42,421,0,8).
operation(42,422,8,96).
operation(42,423,3,59).
operation(42,424,2,41).
operation(42,425,4,23).
operation(42,426,1,37).
operation(42,427,9,4).
operation(42,428,5,69).
operation(42,429,6,27).

%--- Job 43
job(43).
operation(43,430,1,23).
operation(43,431,9,3).
operation(43,432,2,85).
operation(43,433,6,93).
operation(43,434,5,18).
operation(43,435,7,47).
operation(43,436,0,96).
operation(43,437,8,6).
operation(43,438,4,60).
operation(43,439,3,3).

%--- Job 44
job(44).
operation(44,440,6,99).
operation(44,441,2,14).
operation(44,442,9,16).
operation(44,443,3,81).
operation(44,444,8,89).
operation(44,445,1,53).
operation(44,446,7,86).
operation(44,447,4,39).
operation(44,448,5,3).
operation(44,449,0,87).

%--- Job 45
job(45).
operation(45,450,5,67).
operation(45,451,8,53).
operation(45,452,0,77).
operation(45,453,4,69).
operation(45,454,2,55).
operation(45,455,3,78).
operation(45,456,6,95).
operation(45,457,1,76).
operation(45,458,7,2).
operation(45,459,9,71).

%--- Job 46
job(46).
operation(46,460,1,5).
operation(46,461,6,89).
operation(46,462,0,37).
operation(46,463,3,88).
operation(46,464,7,20).
operation(46,465,9,4).
operation(46,466,4,77).
operation(46,467,8,27).
operation(46,468,5,31).
operation(46,469,2,47).

%--- Job 47
job(47).
operation(47,470,1,66).
operation(47,471,2,55).
operation(47,472,4,15).
operation(47,473,7,35).
operation(47,474,3,76).
operation(47,475,9,91).
operation(47,476,6,35).
operation(47,477,5,37).
operation(47,478,8,54).
operation(47,479,0,33).

%--- Job 48
job(48).
operation(48,480,3,79).
operation(48,481,5,2).
operation(48,482,6,17).
operation(48,483,1,65).
operation(48,484,7,27).
operation(48,485,8,53).
operation(48,486,4,52).
operation(48,487,9,35).
operation(48,488,0,23).
operation(48,489,2,59).

%--- Job 49
job(49).
operation(49,490,9,100).
operation(49,491,0,55).
operation(49,492,5,14).
operation(49,493,2,86).
operation(49,494,4,69).
operation(49,495,3,87).
operation(49,496,8,46).
operation(49,497,1,3).
operation(49,498,6,89).
operation(49,499,7,100).

