job(1).
job(2).
job(3).
job(4).
job(5).
job(6).
job(7).
job(8).
job(9).
job(10).
machine(1).
machine(2).
machine(3).
duration(1,1,3).
duration(2,1,3).
duration(3,1,4).
duration(4,1,2).
duration(5,1,4).
duration(6,1,4).
duration(7,1,4).
duration(8,1,1).
duration(9,1,4).
duration(10,1,4).
duration(1,2,3).
duration(2,2,3).
duration(3,2,4).
duration(4,2,2).
duration(5,2,4).
duration(6,2,4).
duration(7,2,4).
duration(8,2,1).
duration(9,2,4).
duration(10,2,4).
duration(1,3,3).
duration(2,3,3).
duration(3,3,4).
duration(4,3,2).
duration(5,3,4).
duration(6,3,4).
duration(7,3,4).
duration(8,3,1).
duration(9,3,4).
duration(10,3,4).
limit(33).
