% ========= Metadata =========
   meta(name,abz6).
   meta(num_jobs,10).
   meta(num_machines,10).
   meta(num_operations,100).
   meta(optimum,943).
   meta(upper_bound,943).
   meta(lower_bound,943).
% ==========================


machine(0..10).

%--- Job 0
job(0).
operation(0,0,7,62).
operation(0,1,8,24).
operation(0,2,5,25).
operation(0,3,3,84).
operation(0,4,4,47).
operation(0,5,6,38).
operation(0,6,2,82).
operation(0,7,0,93).
operation(0,8,9,24).
operation(0,9,1,66).

%--- Job 1
job(1).
operation(1,10,5,47).
operation(1,11,2,97).
operation(1,12,8,92).
operation(1,13,9,22).
operation(1,14,1,93).
operation(1,15,4,29).
operation(1,16,7,56).
operation(1,17,3,80).
operation(1,18,0,78).
operation(1,19,6,67).

%--- Job 2
job(2).
operation(2,20,1,45).
operation(2,21,7,46).
operation(2,22,6,22).
operation(2,23,2,26).
operation(2,24,9,38).
operation(2,25,0,69).
operation(2,26,4,40).
operation(2,27,3,33).
operation(2,28,8,75).
operation(2,29,5,96).

%--- Job 3
job(3).
operation(3,30,4,85).
operation(3,31,8,76).
operation(3,32,5,68).
operation(3,33,9,88).
operation(3,34,3,36).
operation(3,35,6,75).
operation(3,36,2,56).
operation(3,37,1,35).
operation(3,38,0,77).
operation(3,39,7,85).

%--- Job 4
job(4).
operation(4,40,8,60).
operation(4,41,9,20).
operation(4,42,7,25).
operation(4,43,3,63).
operation(4,44,4,81).
operation(4,45,0,52).
operation(4,46,1,30).
operation(4,47,5,98).
operation(4,48,6,54).
operation(4,49,2,86).

%--- Job 5
job(5).
operation(5,50,3,87).
operation(5,51,9,73).
operation(5,52,5,51).
operation(5,53,2,95).
operation(5,54,4,65).
operation(5,55,1,86).
operation(5,56,6,22).
operation(5,57,8,58).
operation(5,58,0,80).
operation(5,59,7,65).

%--- Job 6
job(6).
operation(6,60,5,81).
operation(6,61,2,53).
operation(6,62,7,57).
operation(6,63,6,71).
operation(6,64,9,81).
operation(6,65,0,43).
operation(6,66,4,26).
operation(6,67,8,54).
operation(6,68,3,58).
operation(6,69,1,69).

%--- Job 7
job(7).
operation(7,70,4,20).
operation(7,71,6,86).
operation(7,72,5,21).
operation(7,73,8,79).
operation(7,74,9,62).
operation(7,75,2,34).
operation(7,76,0,27).
operation(7,77,1,81).
operation(7,78,7,30).
operation(7,79,3,46).

%--- Job 8
job(8).
operation(8,80,9,68).
operation(8,81,6,66).
operation(8,82,5,98).
operation(8,83,8,86).
operation(8,84,7,66).
operation(8,85,0,56).
operation(8,86,3,82).
operation(8,87,1,95).
operation(8,88,4,47).
operation(8,89,2,78).

%--- Job 9
job(9).
operation(9,90,0,30).
operation(9,91,3,50).
operation(9,92,7,34).
operation(9,93,2,58).
operation(9,94,1,77).
operation(9,95,5,34).
operation(9,96,8,84).
operation(9,97,4,40).
operation(9,98,9,46).
operation(9,99,6,44).

