% ========= Metadata =========
   meta(name,abz7).
   meta(num_jobs,20).
   meta(num_machines,15).
   meta(num_operations,300).
   meta(optimum,656).
   meta(upper_bound,656).
   meta(lower_bound,656).
% ==========================


machine(0..15).

%--- Job 0
job(0).
operation(0,0,2,24).
operation(0,1,3,12).
operation(0,2,9,17).
operation(0,3,4,27).
operation(0,4,0,21).
operation(0,5,6,25).
operation(0,6,8,27).
operation(0,7,7,26).
operation(0,8,1,30).
operation(0,9,5,31).
operation(0,10,11,18).
operation(0,11,14,16).
operation(0,12,13,39).
operation(0,13,10,19).
operation(0,14,12,26).

%--- Job 1
job(1).
operation(1,15,6,30).
operation(1,16,3,15).
operation(1,17,12,20).
operation(1,18,11,19).
operation(1,19,1,24).
operation(1,20,13,15).
operation(1,21,10,28).
operation(1,22,2,36).
operation(1,23,5,26).
operation(1,24,7,15).
operation(1,25,0,11).
operation(1,26,8,23).
operation(1,27,14,20).
operation(1,28,9,26).
operation(1,29,4,28).

%--- Job 2
job(2).
operation(2,30,6,35).
operation(2,31,0,22).
operation(2,32,13,23).
operation(2,33,7,32).
operation(2,34,2,20).
operation(2,35,3,12).
operation(2,36,12,19).
operation(2,37,10,23).
operation(2,38,9,17).
operation(2,39,1,14).
operation(2,40,5,16).
operation(2,41,11,29).
operation(2,42,8,16).
operation(2,43,4,22).
operation(2,44,14,22).

%--- Job 3
job(3).
operation(3,45,9,20).
operation(3,46,6,29).
operation(3,47,1,19).
operation(3,48,7,14).
operation(3,49,12,33).
operation(3,50,4,30).
operation(3,51,0,32).
operation(3,52,5,21).
operation(3,53,11,29).
operation(3,54,10,24).
operation(3,55,14,25).
operation(3,56,2,29).
operation(3,57,3,13).
operation(3,58,8,20).
operation(3,59,13,18).

%--- Job 4
job(4).
operation(4,60,11,23).
operation(4,61,13,20).
operation(4,62,1,28).
operation(4,63,6,32).
operation(4,64,7,16).
operation(4,65,5,18).
operation(4,66,8,24).
operation(4,67,9,23).
operation(4,68,3,24).
operation(4,69,10,34).
operation(4,70,2,24).
operation(4,71,0,24).
operation(4,72,14,28).
operation(4,73,12,15).
operation(4,74,4,18).

%--- Job 5
job(5).
operation(5,75,8,24).
operation(5,76,11,19).
operation(5,77,14,21).
operation(5,78,1,33).
operation(5,79,7,34).
operation(5,80,6,35).
operation(5,81,5,40).
operation(5,82,10,36).
operation(5,83,3,23).
operation(5,84,2,26).
operation(5,85,4,15).
operation(5,86,9,28).
operation(5,87,13,38).
operation(5,88,12,13).
operation(5,89,0,25).

%--- Job 6
job(6).
operation(6,90,13,27).
operation(6,91,3,30).
operation(6,92,6,21).
operation(6,93,8,19).
operation(6,94,12,12).
operation(6,95,4,27).
operation(6,96,2,39).
operation(6,97,9,13).
operation(6,98,14,12).
operation(6,99,5,36).
operation(6,100,10,21).
operation(6,101,11,17).
operation(6,102,1,29).
operation(6,103,0,17).
operation(6,104,7,33).

%--- Job 7
job(7).
operation(7,105,5,27).
operation(7,106,4,19).
operation(7,107,6,29).
operation(7,108,9,20).
operation(7,109,3,21).
operation(7,110,10,40).
operation(7,111,8,14).
operation(7,112,14,39).
operation(7,113,13,39).
operation(7,114,2,27).
operation(7,115,1,36).
operation(7,116,12,12).
operation(7,117,11,37).
operation(7,118,7,22).
operation(7,119,0,13).

%--- Job 8
job(8).
operation(8,120,13,32).
operation(8,121,11,29).
operation(8,122,8,24).
operation(8,123,3,27).
operation(8,124,5,40).
operation(8,125,4,21).
operation(8,126,9,26).
operation(8,127,0,27).
operation(8,128,14,27).
operation(8,129,6,16).
operation(8,130,2,21).
operation(8,131,10,13).
operation(8,132,7,28).
operation(8,133,12,28).
operation(8,134,1,32).

%--- Job 9
job(9).
operation(9,135,12,35).
operation(9,136,1,11).
operation(9,137,5,39).
operation(9,138,14,18).
operation(9,139,7,23).
operation(9,140,0,34).
operation(9,141,3,24).
operation(9,142,13,11).
operation(9,143,8,30).
operation(9,144,11,31).
operation(9,145,4,15).
operation(9,146,10,15).
operation(9,147,2,28).
operation(9,148,9,26).
operation(9,149,6,33).

%--- Job 10
job(10).
operation(10,150,10,28).
operation(10,151,5,37).
operation(10,152,12,29).
operation(10,153,1,31).
operation(10,154,7,25).
operation(10,155,8,13).
operation(10,156,14,14).
operation(10,157,4,20).
operation(10,158,3,27).
operation(10,159,9,25).
operation(10,160,13,31).
operation(10,161,11,14).
operation(10,162,6,25).
operation(10,163,2,39).
operation(10,164,0,36).

%--- Job 11
job(11).
operation(11,165,0,22).
operation(11,166,11,25).
operation(11,167,5,28).
operation(11,168,13,35).
operation(11,169,4,31).
operation(11,170,8,21).
operation(11,171,9,20).
operation(11,172,14,19).
operation(11,173,2,29).
operation(11,174,7,32).
operation(11,175,10,18).
operation(11,176,1,18).
operation(11,177,3,11).
operation(11,178,12,17).
operation(11,179,6,15).

%--- Job 12
job(12).
operation(12,180,12,39).
operation(12,181,5,32).
operation(12,182,2,36).
operation(12,183,8,14).
operation(12,184,3,28).
operation(12,185,13,37).
operation(12,186,0,38).
operation(12,187,6,20).
operation(12,188,7,19).
operation(12,189,11,12).
operation(12,190,14,22).
operation(12,191,1,36).
operation(12,192,4,15).
operation(12,193,9,32).
operation(12,194,10,16).

%--- Job 13
job(13).
operation(13,195,8,28).
operation(13,196,1,29).
operation(13,197,14,40).
operation(13,198,12,23).
operation(13,199,4,34).
operation(13,200,5,33).
operation(13,201,6,27).
operation(13,202,10,17).
operation(13,203,0,20).
operation(13,204,7,28).
operation(13,205,11,21).
operation(13,206,2,21).
operation(13,207,13,20).
operation(13,208,9,33).
operation(13,209,3,27).

%--- Job 14
job(14).
operation(14,210,9,21).
operation(14,211,14,34).
operation(14,212,3,30).
operation(14,213,12,38).
operation(14,214,0,11).
operation(14,215,11,16).
operation(14,216,2,14).
operation(14,217,5,14).
operation(14,218,1,34).
operation(14,219,8,33).
operation(14,220,4,23).
operation(14,221,13,40).
operation(14,222,10,12).
operation(14,223,6,23).
operation(14,224,7,27).

%--- Job 15
job(15).
operation(15,225,9,13).
operation(15,226,14,40).
operation(15,227,7,36).
operation(15,228,4,17).
operation(15,229,0,13).
operation(15,230,5,33).
operation(15,231,8,25).
operation(15,232,13,24).
operation(15,233,10,23).
operation(15,234,3,36).
operation(15,235,2,29).
operation(15,236,1,18).
operation(15,237,11,13).
operation(15,238,6,33).
operation(15,239,12,13).

%--- Job 16
job(16).
operation(16,240,3,25).
operation(16,241,5,15).
operation(16,242,2,28).
operation(16,243,12,40).
operation(16,244,7,39).
operation(16,245,1,31).
operation(16,246,8,35).
operation(16,247,6,31).
operation(16,248,11,36).
operation(16,249,4,12).
operation(16,250,10,33).
operation(16,251,14,19).
operation(16,252,9,16).
operation(16,253,13,27).
operation(16,254,0,21).

%--- Job 17
job(17).
operation(17,255,12,22).
operation(17,256,10,14).
operation(17,257,0,12).
operation(17,258,2,20).
operation(17,259,5,12).
operation(17,260,1,18).
operation(17,261,11,17).
operation(17,262,8,39).
operation(17,263,14,31).
operation(17,264,3,31).
operation(17,265,7,32).
operation(17,266,9,20).
operation(17,267,13,29).
operation(17,268,4,13).
operation(17,269,6,26).

%--- Job 18
job(18).
operation(18,270,5,18).
operation(18,271,10,30).
operation(18,272,7,38).
operation(18,273,14,22).
operation(18,274,13,15).
operation(18,275,11,20).
operation(18,276,9,16).
operation(18,277,3,17).
operation(18,278,1,12).
operation(18,279,2,13).
operation(18,280,12,40).
operation(18,281,6,17).
operation(18,282,8,30).
operation(18,283,4,38).
operation(18,284,0,13).

%--- Job 19
job(19).
operation(19,285,9,31).
operation(19,286,8,39).
operation(19,287,12,27).
operation(19,288,1,14).
operation(19,289,5,33).
operation(19,290,3,31).
operation(19,291,11,22).
operation(19,292,13,36).
operation(19,293,0,16).
operation(19,294,7,11).
operation(19,295,14,14).
operation(19,296,4,29).
operation(19,297,6,28).
operation(19,298,2,22).
operation(19,299,10,17).

