% ========= Metadata =========
   meta(name,abz8).
   meta(num_jobs,20).
   meta(num_machines,15).
   meta(num_operations,300).
   meta(optimum,None).
   meta(upper_bound,665).
   meta(lower_bound,645).
% ==========================


machine(0..15).

%--- Job 0
job(0).
operation(0,0,0,19).
operation(0,1,9,33).
operation(0,2,2,32).
operation(0,3,13,18).
operation(0,4,10,39).
operation(0,5,8,34).
operation(0,6,6,25).
operation(0,7,4,36).
operation(0,8,11,40).
operation(0,9,12,33).
operation(0,10,1,31).
operation(0,11,14,30).
operation(0,12,3,34).
operation(0,13,5,26).
operation(0,14,7,13).

%--- Job 1
job(1).
operation(1,15,9,11).
operation(1,16,10,22).
operation(1,17,14,19).
operation(1,18,5,12).
operation(1,19,4,25).
operation(1,20,6,38).
operation(1,21,0,29).
operation(1,22,7,39).
operation(1,23,13,19).
operation(1,24,11,22).
operation(1,25,1,23).
operation(1,26,3,20).
operation(1,27,2,40).
operation(1,28,12,19).
operation(1,29,8,26).

%--- Job 2
job(2).
operation(2,30,3,25).
operation(2,31,8,17).
operation(2,32,11,24).
operation(2,33,13,40).
operation(2,34,10,32).
operation(2,35,14,16).
operation(2,36,5,39).
operation(2,37,9,19).
operation(2,38,0,24).
operation(2,39,1,39).
operation(2,40,4,17).
operation(2,41,2,35).
operation(2,42,7,38).
operation(2,43,6,20).
operation(2,44,12,31).

%--- Job 3
job(3).
operation(3,45,14,22).
operation(3,46,3,36).
operation(3,47,2,34).
operation(3,48,12,17).
operation(3,49,4,30).
operation(3,50,13,12).
operation(3,51,1,13).
operation(3,52,6,25).
operation(3,53,9,12).
operation(3,54,7,18).
operation(3,55,10,31).
operation(3,56,0,39).
operation(3,57,5,40).
operation(3,58,8,26).
operation(3,59,11,37).

%--- Job 4
job(4).
operation(4,60,12,32).
operation(4,61,14,15).
operation(4,62,1,35).
operation(4,63,7,13).
operation(4,64,8,32).
operation(4,65,11,23).
operation(4,66,6,22).
operation(4,67,4,21).
operation(4,68,0,38).
operation(4,69,2,38).
operation(4,70,3,40).
operation(4,71,10,31).
operation(4,72,5,11).
operation(4,73,13,37).
operation(4,74,9,16).

%--- Job 5
job(5).
operation(5,75,10,23).
operation(5,76,12,38).
operation(5,77,8,11).
operation(5,78,14,27).
operation(5,79,9,11).
operation(5,80,6,25).
operation(5,81,5,14).
operation(5,82,4,12).
operation(5,83,2,27).
operation(5,84,11,26).
operation(5,85,7,29).
operation(5,86,3,28).
operation(5,87,13,21).
operation(5,88,0,20).
operation(5,89,1,30).

%--- Job 6
job(6).
operation(6,90,6,39).
operation(6,91,8,38).
operation(6,92,0,15).
operation(6,93,12,27).
operation(6,94,10,22).
operation(6,95,9,27).
operation(6,96,2,32).
operation(6,97,4,40).
operation(6,98,3,12).
operation(6,99,13,20).
operation(6,100,14,21).
operation(6,101,11,22).
operation(6,102,5,17).
operation(6,103,7,38).
operation(6,104,1,27).

%--- Job 7
job(7).
operation(7,105,11,11).
operation(7,106,13,24).
operation(7,107,10,38).
operation(7,108,8,15).
operation(7,109,9,19).
operation(7,110,14,13).
operation(7,111,5,30).
operation(7,112,0,26).
operation(7,113,2,29).
operation(7,114,6,33).
operation(7,115,12,21).
operation(7,116,1,15).
operation(7,117,3,21).
operation(7,118,4,28).
operation(7,119,7,33).

%--- Job 8
job(8).
operation(8,120,8,20).
operation(8,121,6,17).
operation(8,122,5,26).
operation(8,123,3,34).
operation(8,124,9,23).
operation(8,125,0,16).
operation(8,126,2,18).
operation(8,127,4,35).
operation(8,128,12,24).
operation(8,129,10,16).
operation(8,130,11,26).
operation(8,131,7,12).
operation(8,132,14,13).
operation(8,133,13,27).
operation(8,134,1,19).

%--- Job 9
job(9).
operation(9,135,1,18).
operation(9,136,7,37).
operation(9,137,14,27).
operation(9,138,9,40).
operation(9,139,5,40).
operation(9,140,6,17).
operation(9,141,8,22).
operation(9,142,3,17).
operation(9,143,10,30).
operation(9,144,0,38).
operation(9,145,4,21).
operation(9,146,12,32).
operation(9,147,11,24).
operation(9,148,13,24).
operation(9,149,2,30).

%--- Job 10
job(10).
operation(10,150,11,19).
operation(10,151,0,22).
operation(10,152,13,36).
operation(10,153,6,18).
operation(10,154,5,22).
operation(10,155,3,17).
operation(10,156,14,35).
operation(10,157,10,34).
operation(10,158,7,23).
operation(10,159,8,19).
operation(10,160,2,29).
operation(10,161,1,22).
operation(10,162,12,17).
operation(10,163,4,33).
operation(10,164,9,39).

%--- Job 11
job(11).
operation(11,165,6,32).
operation(11,166,3,22).
operation(11,167,12,24).
operation(11,168,5,13).
operation(11,169,4,13).
operation(11,170,1,11).
operation(11,171,0,11).
operation(11,172,13,25).
operation(11,173,8,13).
operation(11,174,2,15).
operation(11,175,10,33).
operation(11,176,11,17).
operation(11,177,14,16).
operation(11,178,9,38).
operation(11,179,7,24).

%--- Job 12
job(12).
operation(12,180,14,16).
operation(12,181,13,16).
operation(12,182,1,37).
operation(12,183,8,25).
operation(12,184,2,26).
operation(12,185,3,11).
operation(12,186,9,34).
operation(12,187,4,14).
operation(12,188,0,20).
operation(12,189,6,36).
operation(12,190,12,12).
operation(12,191,5,29).
operation(12,192,10,25).
operation(12,193,7,32).
operation(12,194,11,12).

%--- Job 13
job(13).
operation(13,195,8,20).
operation(13,196,10,24).
operation(13,197,11,27).
operation(13,198,9,38).
operation(13,199,5,34).
operation(13,200,12,39).
operation(13,201,7,33).
operation(13,202,4,37).
operation(13,203,2,31).
operation(13,204,13,15).
operation(13,205,14,34).
operation(13,206,3,33).
operation(13,207,6,26).
operation(13,208,1,36).
operation(13,209,0,14).

%--- Job 14
job(14).
operation(14,210,8,31).
operation(14,211,0,17).
operation(14,212,9,13).
operation(14,213,1,21).
operation(14,214,10,17).
operation(14,215,7,19).
operation(14,216,13,14).
operation(14,217,3,40).
operation(14,218,5,32).
operation(14,219,11,25).
operation(14,220,2,34).
operation(14,221,14,23).
operation(14,222,6,13).
operation(14,223,12,40).
operation(14,224,4,26).

%--- Job 15
job(15).
operation(15,225,8,38).
operation(15,226,12,17).
operation(15,227,3,14).
operation(15,228,13,17).
operation(15,229,4,12).
operation(15,230,1,35).
operation(15,231,6,35).
operation(15,232,0,19).
operation(15,233,10,36).
operation(15,234,7,19).
operation(15,235,9,29).
operation(15,236,2,31).
operation(15,237,5,26).
operation(15,238,11,35).
operation(15,239,14,37).

%--- Job 16
job(16).
operation(16,240,14,20).
operation(16,241,3,16).
operation(16,242,0,33).
operation(16,243,10,14).
operation(16,244,5,27).
operation(16,245,7,31).
operation(16,246,8,16).
operation(16,247,6,31).
operation(16,248,12,28).
operation(16,249,9,37).
operation(16,250,4,37).
operation(16,251,2,29).
operation(16,252,11,38).
operation(16,253,1,30).
operation(16,254,13,36).

%--- Job 17
job(17).
operation(17,255,11,18).
operation(17,256,3,37).
operation(17,257,14,16).
operation(17,258,6,15).
operation(17,259,8,14).
operation(17,260,12,11).
operation(17,261,13,32).
operation(17,262,5,12).
operation(17,263,1,11).
operation(17,264,10,29).
operation(17,265,7,19).
operation(17,266,4,12).
operation(17,267,9,18).
operation(17,268,2,26).
operation(17,269,0,39).

%--- Job 18
job(18).
operation(18,270,11,11).
operation(18,271,2,11).
operation(18,272,12,22).
operation(18,273,9,35).
operation(18,274,14,20).
operation(18,275,7,31).
operation(18,276,4,19).
operation(18,277,3,39).
operation(18,278,5,28).
operation(18,279,6,33).
operation(18,280,10,34).
operation(18,281,1,38).
operation(18,282,0,20).
operation(18,283,13,17).
operation(18,284,8,28).

%--- Job 19
job(19).
operation(19,285,2,12).
operation(19,286,12,25).
operation(19,287,5,23).
operation(19,288,8,21).
operation(19,289,6,27).
operation(19,290,9,30).
operation(19,291,14,23).
operation(19,292,11,39).
operation(19,293,3,26).
operation(19,294,13,34).
operation(19,295,7,17).
operation(19,296,1,24).
operation(19,297,4,12).
operation(19,298,0,19).
operation(19,299,10,36).

