% ========= Metadata =========
   meta(name,ft20).
   meta(num_jobs,20).
   meta(num_machines,5).
   meta(num_operations,100).
   meta(optimum,1165).
   meta(upper_bound,1165).
   meta(lower_bound,1165).
% ==========================


machine(0..5).

%--- Job 0
job(0).
operation(0,0,0,29).
operation(0,1,1,9).
operation(0,2,2,49).
operation(0,3,3,62).
operation(0,4,4,44).

%--- Job 1
job(1).
operation(1,5,0,43).
operation(1,6,1,75).
operation(1,7,3,69).
operation(1,8,2,46).
operation(1,9,4,72).

%--- Job 2
job(2).
operation(2,10,1,91).
operation(2,11,0,39).
operation(2,12,2,90).
operation(2,13,4,12).
operation(2,14,3,45).

%--- Job 3
job(3).
operation(3,15,1,81).
operation(3,16,0,71).
operation(3,17,4,9).
operation(3,18,2,85).
operation(3,19,3,22).

%--- Job 4
job(4).
operation(4,20,2,14).
operation(4,21,1,22).
operation(4,22,0,26).
operation(4,23,3,21).
operation(4,24,4,72).

%--- Job 5
job(5).
operation(5,25,2,84).
operation(5,26,1,52).
operation(5,27,4,48).
operation(5,28,0,47).
operation(5,29,3,6).

%--- Job 6
job(6).
operation(6,30,1,46).
operation(6,31,0,61).
operation(6,32,2,32).
operation(6,33,3,32).
operation(6,34,4,30).

%--- Job 7
job(7).
operation(7,35,2,31).
operation(7,36,1,46).
operation(7,37,0,32).
operation(7,38,3,19).
operation(7,39,4,36).

%--- Job 8
job(8).
operation(8,40,0,76).
operation(8,41,3,76).
operation(8,42,2,85).
operation(8,43,1,40).
operation(8,44,4,26).

%--- Job 9
job(9).
operation(9,45,1,85).
operation(9,46,2,61).
operation(9,47,0,64).
operation(9,48,3,47).
operation(9,49,4,90).

%--- Job 10
job(10).
operation(10,50,1,78).
operation(10,51,3,36).
operation(10,52,0,11).
operation(10,53,4,56).
operation(10,54,2,21).

%--- Job 11
job(11).
operation(11,55,2,90).
operation(11,56,0,11).
operation(11,57,1,28).
operation(11,58,3,46).
operation(11,59,4,30).

%--- Job 12
job(12).
operation(12,60,0,85).
operation(12,61,2,74).
operation(12,62,1,10).
operation(12,63,3,89).
operation(12,64,4,33).

%--- Job 13
job(13).
operation(13,65,2,95).
operation(13,66,0,99).
operation(13,67,1,52).
operation(13,68,3,98).
operation(13,69,4,43).

%--- Job 14
job(14).
operation(14,70,0,6).
operation(14,71,1,61).
operation(14,72,4,69).
operation(14,73,2,49).
operation(14,74,3,53).

%--- Job 15
job(15).
operation(15,75,1,2).
operation(15,76,0,95).
operation(15,77,3,72).
operation(15,78,4,65).
operation(15,79,2,25).

%--- Job 16
job(16).
operation(16,80,0,37).
operation(16,81,2,13).
operation(16,82,1,21).
operation(16,83,3,89).
operation(16,84,4,55).

%--- Job 17
job(17).
operation(17,85,0,86).
operation(17,86,1,74).
operation(17,87,4,88).
operation(17,88,2,48).
operation(17,89,3,79).

%--- Job 18
job(18).
operation(18,90,1,69).
operation(18,91,2,51).
operation(18,92,0,11).
operation(18,93,3,89).
operation(18,94,4,74).

%--- Job 19
job(19).
operation(19,95,0,13).
operation(19,96,1,7).
operation(19,97,2,76).
operation(19,98,3,52).
operation(19,99,4,45).

