% ========= Metadata =========
   meta(name,la06).
   meta(num_jobs,15).
   meta(num_machines,5).
   meta(num_operations,75).
   meta(optimum,926).
   meta(upper_bound,926).
   meta(lower_bound,926).
% ==========================


machine(0..5).

%--- Job 0
job(0).
operation(0,0,1,21).
operation(0,1,2,34).
operation(0,2,4,95).
operation(0,3,0,53).
operation(0,4,3,55).

%--- Job 1
job(1).
operation(1,5,3,52).
operation(1,6,4,16).
operation(1,7,1,71).
operation(1,8,2,26).
operation(1,9,0,21).

%--- Job 2
job(2).
operation(2,10,2,31).
operation(2,11,0,12).
operation(2,12,1,42).
operation(2,13,3,39).
operation(2,14,4,98).

%--- Job 3
job(3).
operation(3,15,3,77).
operation(3,16,1,77).
operation(3,17,4,79).
operation(3,18,0,55).
operation(3,19,2,66).

%--- Job 4
job(4).
operation(4,20,4,37).
operation(4,21,3,34).
operation(4,22,2,64).
operation(4,23,1,19).
operation(4,24,0,83).

%--- Job 5
job(5).
operation(5,25,2,43).
operation(5,26,1,54).
operation(5,27,0,92).
operation(5,28,3,62).
operation(5,29,4,79).

%--- Job 6
job(6).
operation(6,30,0,93).
operation(6,31,3,69).
operation(6,32,1,87).
operation(6,33,4,77).
operation(6,34,2,87).

%--- Job 7
job(7).
operation(7,35,0,60).
operation(7,36,1,41).
operation(7,37,2,38).
operation(7,38,4,83).
operation(7,39,3,24).

%--- Job 8
job(8).
operation(8,40,2,98).
operation(8,41,3,17).
operation(8,42,4,25).
operation(8,43,0,44).
operation(8,44,1,49).

%--- Job 9
job(9).
operation(9,45,0,96).
operation(9,46,4,77).
operation(9,47,3,79).
operation(9,48,1,75).
operation(9,49,2,43).

%--- Job 10
job(10).
operation(10,50,4,28).
operation(10,51,2,35).
operation(10,52,0,95).
operation(10,53,3,76).
operation(10,54,1,7).

%--- Job 11
job(11).
operation(11,55,0,61).
operation(11,56,4,10).
operation(11,57,2,95).
operation(11,58,1,9).
operation(11,59,3,35).

%--- Job 12
job(12).
operation(12,60,4,59).
operation(12,61,3,16).
operation(12,62,1,91).
operation(12,63,2,59).
operation(12,64,0,46).

%--- Job 13
job(13).
operation(13,65,4,43).
operation(13,66,1,52).
operation(13,67,0,28).
operation(13,68,2,27).
operation(13,69,3,50).

%--- Job 14
job(14).
operation(14,70,0,87).
operation(14,71,1,45).
operation(14,72,2,39).
operation(14,73,4,9).
operation(14,74,3,41).

