% ========= Metadata =========
   meta(name,la07).
   meta(num_jobs,15).
   meta(num_machines,5).
   meta(num_operations,75).
   meta(optimum,890).
   meta(upper_bound,890).
   meta(lower_bound,890).
% ==========================


machine(0..5).

%--- Job 0
job(0).
operation(0,0,0,47).
operation(0,1,4,57).
operation(0,2,1,71).
operation(0,3,3,96).
operation(0,4,2,14).

%--- Job 1
job(1).
operation(1,5,0,75).
operation(1,6,1,60).
operation(1,7,4,22).
operation(1,8,3,79).
operation(1,9,2,65).

%--- Job 2
job(2).
operation(2,10,3,32).
operation(2,11,0,33).
operation(2,12,2,69).
operation(2,13,1,31).
operation(2,14,4,58).

%--- Job 3
job(3).
operation(3,15,0,44).
operation(3,16,1,34).
operation(3,17,4,51).
operation(3,18,3,58).
operation(3,19,2,47).

%--- Job 4
job(4).
operation(4,20,3,29).
operation(4,21,1,44).
operation(4,22,0,62).
operation(4,23,2,17).
operation(4,24,4,8).

%--- Job 5
job(5).
operation(5,25,1,15).
operation(5,26,2,40).
operation(5,27,0,97).
operation(5,28,4,38).
operation(5,29,3,66).

%--- Job 6
job(6).
operation(6,30,2,58).
operation(6,31,1,39).
operation(6,32,0,57).
operation(6,33,4,20).
operation(6,34,3,50).

%--- Job 7
job(7).
operation(7,35,2,57).
operation(7,36,3,32).
operation(7,37,4,87).
operation(7,38,0,63).
operation(7,39,1,21).

%--- Job 8
job(8).
operation(8,40,4,56).
operation(8,41,0,84).
operation(8,42,2,90).
operation(8,43,1,85).
operation(8,44,3,61).

%--- Job 9
job(9).
operation(9,45,4,15).
operation(9,46,0,20).
operation(9,47,1,67).
operation(9,48,3,30).
operation(9,49,2,70).

%--- Job 10
job(10).
operation(10,50,4,84).
operation(10,51,0,82).
operation(10,52,1,23).
operation(10,53,2,45).
operation(10,54,3,38).

%--- Job 11
job(11).
operation(11,55,3,50).
operation(11,56,2,21).
operation(11,57,0,18).
operation(11,58,4,41).
operation(11,59,1,29).

%--- Job 12
job(12).
operation(12,60,4,16).
operation(12,61,1,52).
operation(12,62,0,52).
operation(12,63,2,38).
operation(12,64,3,54).

%--- Job 13
job(13).
operation(13,65,4,37).
operation(13,66,0,54).
operation(13,67,3,57).
operation(13,68,2,74).
operation(13,69,1,62).

%--- Job 14
job(14).
operation(14,70,4,57).
operation(14,71,1,61).
operation(14,72,0,81).
operation(14,73,2,30).
operation(14,74,3,68).

