% ========= Metadata =========
   meta(name,la08).
   meta(num_jobs,15).
   meta(num_machines,5).
   meta(num_operations,75).
   meta(optimum,863).
   meta(upper_bound,863).
   meta(lower_bound,863).
% ==========================


machine(0..5).

%--- Job 0
job(0).
operation(0,0,3,92).
operation(0,1,2,94).
operation(0,2,0,12).
operation(0,3,4,91).
operation(0,4,1,7).

%--- Job 1
job(1).
operation(1,5,2,21).
operation(1,6,1,19).
operation(1,7,0,87).
operation(1,8,3,11).
operation(1,9,4,66).

%--- Job 2
job(2).
operation(2,10,1,14).
operation(2,11,3,13).
operation(2,12,0,75).
operation(2,13,4,16).
operation(2,14,2,20).

%--- Job 3
job(3).
operation(3,15,2,95).
operation(3,16,4,66).
operation(3,17,0,7).
operation(3,18,1,77).
operation(3,19,3,7).

%--- Job 4
job(4).
operation(4,20,2,34).
operation(4,21,4,89).
operation(4,22,3,6).
operation(4,23,1,45).
operation(4,24,0,15).

%--- Job 5
job(5).
operation(5,25,4,88).
operation(5,26,3,77).
operation(5,27,2,20).
operation(5,28,1,53).
operation(5,29,0,76).

%--- Job 6
job(6).
operation(6,30,4,9).
operation(6,31,3,27).
operation(6,32,0,52).
operation(6,33,1,88).
operation(6,34,2,74).

%--- Job 7
job(7).
operation(7,35,3,69).
operation(7,36,2,52).
operation(7,37,0,62).
operation(7,38,1,88).
operation(7,39,4,98).

%--- Job 8
job(8).
operation(8,40,3,90).
operation(8,41,0,62).
operation(8,42,4,9).
operation(8,43,2,61).
operation(8,44,1,52).

%--- Job 9
job(9).
operation(9,45,4,5).
operation(9,46,2,54).
operation(9,47,3,59).
operation(9,48,0,88).
operation(9,49,1,15).

%--- Job 10
job(10).
operation(10,50,0,41).
operation(10,51,1,50).
operation(10,52,4,78).
operation(10,53,3,53).
operation(10,54,2,23).

%--- Job 11
job(11).
operation(11,55,0,38).
operation(11,56,4,72).
operation(11,57,2,91).
operation(11,58,3,68).
operation(11,59,1,71).

%--- Job 12
job(12).
operation(12,60,0,45).
operation(12,61,3,95).
operation(12,62,4,52).
operation(12,63,2,25).
operation(12,64,1,6).

%--- Job 13
job(13).
operation(13,65,3,30).
operation(13,66,1,66).
operation(13,67,0,23).
operation(13,68,4,36).
operation(13,69,2,17).

%--- Job 14
job(14).
operation(14,70,2,95).
operation(14,71,0,71).
operation(14,72,3,76).
operation(14,73,1,8).
operation(14,74,4,88).

