% ========= Metadata =========
   meta(name,la09).
   meta(num_jobs,15).
   meta(num_machines,5).
   meta(num_operations,75).
   meta(optimum,951).
   meta(upper_bound,951).
   meta(lower_bound,951).
% ==========================


machine(0..5).

%--- Job 0
job(0).
operation(0,0,1,66).
operation(0,1,3,85).
operation(0,2,2,84).
operation(0,3,0,62).
operation(0,4,4,19).

%--- Job 1
job(1).
operation(1,5,3,59).
operation(1,6,1,64).
operation(1,7,2,46).
operation(1,8,4,13).
operation(1,9,0,25).

%--- Job 2
job(2).
operation(2,10,4,88).
operation(2,11,3,80).
operation(2,12,1,73).
operation(2,13,2,53).
operation(2,14,0,41).

%--- Job 3
job(3).
operation(3,15,0,14).
operation(3,16,1,67).
operation(3,17,2,57).
operation(3,18,3,74).
operation(3,19,4,47).

%--- Job 4
job(4).
operation(4,20,0,84).
operation(4,21,4,64).
operation(4,22,2,41).
operation(4,23,3,84).
operation(4,24,1,78).

%--- Job 5
job(5).
operation(5,25,0,63).
operation(5,26,3,28).
operation(5,27,1,46).
operation(5,28,2,26).
operation(5,29,4,52).

%--- Job 6
job(6).
operation(6,30,3,10).
operation(6,31,2,17).
operation(6,32,4,73).
operation(6,33,1,11).
operation(6,34,0,64).

%--- Job 7
job(7).
operation(7,35,2,67).
operation(7,36,1,97).
operation(7,37,3,95).
operation(7,38,4,38).
operation(7,39,0,85).

%--- Job 8
job(8).
operation(8,40,2,95).
operation(8,41,4,46).
operation(8,42,0,59).
operation(8,43,1,65).
operation(8,44,3,93).

%--- Job 9
job(9).
operation(9,45,2,43).
operation(9,46,4,85).
operation(9,47,3,32).
operation(9,48,1,85).
operation(9,49,0,60).

%--- Job 10
job(10).
operation(10,50,4,49).
operation(10,51,3,41).
operation(10,52,2,61).
operation(10,53,0,66).
operation(10,54,1,90).

%--- Job 11
job(11).
operation(11,55,1,17).
operation(11,56,0,23).
operation(11,57,3,70).
operation(11,58,4,99).
operation(11,59,2,49).

%--- Job 12
job(12).
operation(12,60,4,40).
operation(12,61,3,73).
operation(12,62,0,73).
operation(12,63,1,98).
operation(12,64,2,68).

%--- Job 13
job(13).
operation(13,65,3,57).
operation(13,66,1,9).
operation(13,67,2,7).
operation(13,68,0,13).
operation(13,69,4,98).

%--- Job 14
job(14).
operation(14,70,0,37).
operation(14,71,1,85).
operation(14,72,2,17).
operation(14,73,4,79).
operation(14,74,3,41).

