% ========= Metadata =========
   meta(name,la10).
   meta(num_jobs,15).
   meta(num_machines,5).
   meta(num_operations,75).
   meta(optimum,958).
   meta(upper_bound,958).
   meta(lower_bound,958).
% ==========================


machine(0..5).

%--- Job 0
job(0).
operation(0,0,1,58).
operation(0,1,2,44).
operation(0,2,3,5).
operation(0,3,0,9).
operation(0,4,4,58).

%--- Job 1
job(1).
operation(1,5,1,89).
operation(1,6,0,97).
operation(1,7,4,96).
operation(1,8,3,77).
operation(1,9,2,84).

%--- Job 2
job(2).
operation(2,10,0,77).
operation(2,11,1,87).
operation(2,12,2,81).
operation(2,13,4,39).
operation(2,14,3,85).

%--- Job 3
job(3).
operation(3,15,3,57).
operation(3,16,1,21).
operation(3,17,2,31).
operation(3,18,0,15).
operation(3,19,4,73).

%--- Job 4
job(4).
operation(4,20,2,48).
operation(4,21,0,40).
operation(4,22,1,49).
operation(4,23,3,70).
operation(4,24,4,71).

%--- Job 5
job(5).
operation(5,25,3,34).
operation(5,26,4,82).
operation(5,27,2,80).
operation(5,28,0,10).
operation(5,29,1,22).

%--- Job 6
job(6).
operation(6,30,1,91).
operation(6,31,4,75).
operation(6,32,0,55).
operation(6,33,2,17).
operation(6,34,3,7).

%--- Job 7
job(7).
operation(7,35,2,62).
operation(7,36,3,47).
operation(7,37,1,72).
operation(7,38,4,35).
operation(7,39,0,11).

%--- Job 8
job(8).
operation(8,40,0,64).
operation(8,41,3,75).
operation(8,42,4,50).
operation(8,43,1,90).
operation(8,44,2,94).

%--- Job 9
job(9).
operation(9,45,2,67).
operation(9,46,4,20).
operation(9,47,3,15).
operation(9,48,0,12).
operation(9,49,1,71).

%--- Job 10
job(10).
operation(10,50,0,52).
operation(10,51,4,93).
operation(10,52,3,68).
operation(10,53,2,29).
operation(10,54,1,57).

%--- Job 11
job(11).
operation(11,55,2,70).
operation(11,56,0,58).
operation(11,57,1,93).
operation(11,58,4,7).
operation(11,59,3,77).

%--- Job 12
job(12).
operation(12,60,3,27).
operation(12,61,2,82).
operation(12,62,1,63).
operation(12,63,4,6).
operation(12,64,0,95).

%--- Job 13
job(13).
operation(13,65,1,87).
operation(13,66,2,56).
operation(13,67,4,36).
operation(13,68,0,26).
operation(13,69,3,48).

%--- Job 14
job(14).
operation(14,70,3,76).
operation(14,71,2,36).
operation(14,72,0,36).
operation(14,73,4,15).
operation(14,74,1,8).

