% ========= Metadata =========
   meta(name,la11).
   meta(num_jobs,20).
   meta(num_machines,5).
   meta(num_operations,100).
   meta(optimum,1222).
   meta(upper_bound,1222).
   meta(lower_bound,1222).
% ==========================


machine(0..5).

%--- Job 0
job(0).
operation(0,0,2,34).
operation(0,1,1,21).
operation(0,2,0,53).
operation(0,3,3,55).
operation(0,4,4,95).

%--- Job 1
job(1).
operation(1,5,0,21).
operation(1,6,3,52).
operation(1,7,1,71).
operation(1,8,4,16).
operation(1,9,2,26).

%--- Job 2
job(2).
operation(2,10,0,12).
operation(2,11,1,42).
operation(2,12,2,31).
operation(2,13,4,98).
operation(2,14,3,39).

%--- Job 3
job(3).
operation(3,15,2,66).
operation(3,16,3,77).
operation(3,17,4,79).
operation(3,18,0,55).
operation(3,19,1,77).

%--- Job 4
job(4).
operation(4,20,0,83).
operation(4,21,4,37).
operation(4,22,3,34).
operation(4,23,1,19).
operation(4,24,2,64).

%--- Job 5
job(5).
operation(5,25,4,79).
operation(5,26,2,43).
operation(5,27,0,92).
operation(5,28,3,62).
operation(5,29,1,54).

%--- Job 6
job(6).
operation(6,30,0,93).
operation(6,31,4,77).
operation(6,32,2,87).
operation(6,33,1,87).
operation(6,34,3,69).

%--- Job 7
job(7).
operation(7,35,4,83).
operation(7,36,3,24).
operation(7,37,1,41).
operation(7,38,2,38).
operation(7,39,0,60).

%--- Job 8
job(8).
operation(8,40,4,25).
operation(8,41,1,49).
operation(8,42,0,44).
operation(8,43,2,98).
operation(8,44,3,17).

%--- Job 9
job(9).
operation(9,45,0,96).
operation(9,46,1,75).
operation(9,47,2,43).
operation(9,48,4,77).
operation(9,49,3,79).

%--- Job 10
job(10).
operation(10,50,0,95).
operation(10,51,3,76).
operation(10,52,1,7).
operation(10,53,4,28).
operation(10,54,2,35).

%--- Job 11
job(11).
operation(11,55,4,10).
operation(11,56,2,95).
operation(11,57,0,61).
operation(11,58,1,9).
operation(11,59,3,35).

%--- Job 12
job(12).
operation(12,60,1,91).
operation(12,61,2,59).
operation(12,62,4,59).
operation(12,63,0,46).
operation(12,64,3,16).

%--- Job 13
job(13).
operation(13,65,2,27).
operation(13,66,1,52).
operation(13,67,4,43).
operation(13,68,0,28).
operation(13,69,3,50).

%--- Job 14
job(14).
operation(14,70,4,9).
operation(14,71,0,87).
operation(14,72,3,41).
operation(14,73,2,39).
operation(14,74,1,45).

%--- Job 15
job(15).
operation(15,75,1,54).
operation(15,76,0,20).
operation(15,77,4,43).
operation(15,78,3,14).
operation(15,79,2,71).

%--- Job 16
job(16).
operation(16,80,4,33).
operation(16,81,1,28).
operation(16,82,3,26).
operation(16,83,0,78).
operation(16,84,2,37).

%--- Job 17
job(17).
operation(17,85,1,89).
operation(17,86,0,33).
operation(17,87,2,8).
operation(17,88,3,66).
operation(17,89,4,42).

%--- Job 18
job(18).
operation(18,90,4,84).
operation(18,91,0,69).
operation(18,92,2,94).
operation(18,93,1,74).
operation(18,94,3,27).

%--- Job 19
job(19).
operation(19,95,4,81).
operation(19,96,2,45).
operation(19,97,1,78).
operation(19,98,3,69).
operation(19,99,0,96).

