% ========= Metadata =========
   meta(name,la12).
   meta(num_jobs,20).
   meta(num_machines,5).
   meta(num_operations,100).
   meta(optimum,1039).
   meta(upper_bound,1039).
   meta(lower_bound,1039).
% ==========================


machine(0..5).

%--- Job 0
job(0).
operation(0,0,1,23).
operation(0,1,0,82).
operation(0,2,4,84).
operation(0,3,2,45).
operation(0,4,3,38).

%--- Job 1
job(1).
operation(1,5,3,50).
operation(1,6,4,41).
operation(1,7,1,29).
operation(1,8,0,18).
operation(1,9,2,21).

%--- Job 2
job(2).
operation(2,10,4,16).
operation(2,11,3,54).
operation(2,12,1,52).
operation(2,13,2,38).
operation(2,14,0,52).

%--- Job 3
job(3).
operation(3,15,1,62).
operation(3,16,3,57).
operation(3,17,4,37).
operation(3,18,2,74).
operation(3,19,0,54).

%--- Job 4
job(4).
operation(4,20,3,68).
operation(4,21,1,61).
operation(4,22,2,30).
operation(4,23,0,81).
operation(4,24,4,57).

%--- Job 5
job(5).
operation(5,25,1,89).
operation(5,26,2,89).
operation(5,27,3,11).
operation(5,28,0,79).
operation(5,29,4,81).

%--- Job 6
job(6).
operation(6,30,1,66).
operation(6,31,0,91).
operation(6,32,3,33).
operation(6,33,4,20).
operation(6,34,2,20).

%--- Job 7
job(7).
operation(7,35,3,8).
operation(7,36,4,24).
operation(7,37,2,55).
operation(7,38,0,32).
operation(7,39,1,84).

%--- Job 8
job(8).
operation(8,40,0,7).
operation(8,41,2,64).
operation(8,42,1,39).
operation(8,43,4,56).
operation(8,44,3,54).

%--- Job 9
job(9).
operation(9,45,0,19).
operation(9,46,4,40).
operation(9,47,3,7).
operation(9,48,2,8).
operation(9,49,1,83).

%--- Job 10
job(10).
operation(10,50,0,63).
operation(10,51,2,64).
operation(10,52,3,91).
operation(10,53,4,40).
operation(10,54,1,6).

%--- Job 11
job(11).
operation(11,55,1,42).
operation(11,56,3,61).
operation(11,57,4,15).
operation(11,58,2,98).
operation(11,59,0,74).

%--- Job 12
job(12).
operation(12,60,1,80).
operation(12,61,0,26).
operation(12,62,3,75).
operation(12,63,4,6).
operation(12,64,2,87).

%--- Job 13
job(13).
operation(13,65,2,39).
operation(13,66,4,22).
operation(13,67,0,75).
operation(13,68,3,24).
operation(13,69,1,44).

%--- Job 14
job(14).
operation(14,70,1,15).
operation(14,71,3,79).
operation(14,72,4,8).
operation(14,73,0,12).
operation(14,74,2,20).

%--- Job 15
job(15).
operation(15,75,3,26).
operation(15,76,2,43).
operation(15,77,0,80).
operation(15,78,4,22).
operation(15,79,1,61).

%--- Job 16
job(16).
operation(16,80,2,62).
operation(16,81,1,36).
operation(16,82,0,63).
operation(16,83,3,96).
operation(16,84,4,40).

%--- Job 17
job(17).
operation(17,85,1,33).
operation(17,86,3,18).
operation(17,87,0,22).
operation(17,88,4,5).
operation(17,89,2,10).

%--- Job 18
job(18).
operation(18,90,2,64).
operation(18,91,4,64).
operation(18,92,0,89).
operation(18,93,1,96).
operation(18,94,3,95).

%--- Job 19
job(19).
operation(19,95,2,18).
operation(19,96,4,23).
operation(19,97,3,15).
operation(19,98,1,38).
operation(19,99,0,8).

