% ========= Metadata =========
   meta(name,la16).
   meta(num_jobs,10).
   meta(num_machines,10).
   meta(num_operations,100).
   meta(optimum,945).
   meta(upper_bound,945).
   meta(lower_bound,945).
% ==========================


machine(0..10).

%--- Job 0
job(0).
operation(0,0,1,21).
operation(0,1,6,71).
operation(0,2,9,16).
operation(0,3,8,52).
operation(0,4,7,26).
operation(0,5,2,34).
operation(0,6,0,53).
operation(0,7,4,21).
operation(0,8,3,55).
operation(0,9,5,95).

%--- Job 1
job(1).
operation(1,10,4,55).
operation(1,11,2,31).
operation(1,12,5,98).
operation(1,13,9,79).
operation(1,14,0,12).
operation(1,15,7,66).
operation(1,16,1,42).
operation(1,17,8,77).
operation(1,18,6,77).
operation(1,19,3,39).

%--- Job 2
job(2).
operation(2,20,3,34).
operation(2,21,2,64).
operation(2,22,8,62).
operation(2,23,1,19).
operation(2,24,4,92).
operation(2,25,9,79).
operation(2,26,7,43).
operation(2,27,6,54).
operation(2,28,0,83).
operation(2,29,5,37).

%--- Job 3
job(3).
operation(3,30,1,87).
operation(3,31,3,69).
operation(3,32,2,87).
operation(3,33,7,38).
operation(3,34,8,24).
operation(3,35,9,83).
operation(3,36,6,41).
operation(3,37,0,93).
operation(3,38,5,77).
operation(3,39,4,60).

%--- Job 4
job(4).
operation(4,40,2,98).
operation(4,41,0,44).
operation(4,42,5,25).
operation(4,43,6,75).
operation(4,44,7,43).
operation(4,45,1,49).
operation(4,46,4,96).
operation(4,47,9,77).
operation(4,48,3,17).
operation(4,49,8,79).

%--- Job 5
job(5).
operation(5,50,2,35).
operation(5,51,3,76).
operation(5,52,5,28).
operation(5,53,9,10).
operation(5,54,4,61).
operation(5,55,6,9).
operation(5,56,0,95).
operation(5,57,8,35).
operation(5,58,1,7).
operation(5,59,7,95).

%--- Job 6
job(6).
operation(6,60,3,16).
operation(6,61,2,59).
operation(6,62,0,46).
operation(6,63,1,91).
operation(6,64,9,43).
operation(6,65,8,50).
operation(6,66,6,52).
operation(6,67,5,59).
operation(6,68,4,28).
operation(6,69,7,27).

%--- Job 7
job(7).
operation(7,70,1,45).
operation(7,71,0,87).
operation(7,72,3,41).
operation(7,73,4,20).
operation(7,74,6,54).
operation(7,75,9,43).
operation(7,76,8,14).
operation(7,77,5,9).
operation(7,78,2,39).
operation(7,79,7,71).

%--- Job 8
job(8).
operation(8,80,4,33).
operation(8,81,2,37).
operation(8,82,8,66).
operation(8,83,5,33).
operation(8,84,3,26).
operation(8,85,7,8).
operation(8,86,1,28).
operation(8,87,6,89).
operation(8,88,9,42).
operation(8,89,0,78).

%--- Job 9
job(9).
operation(9,90,8,69).
operation(9,91,9,81).
operation(9,92,2,94).
operation(9,93,4,96).
operation(9,94,3,27).
operation(9,95,0,69).
operation(9,96,7,45).
operation(9,97,6,78).
operation(9,98,1,74).
operation(9,99,5,84).

