% ========= Metadata =========
   meta(name,la17).
   meta(num_jobs,10).
   meta(num_machines,10).
   meta(num_operations,100).
   meta(optimum,784).
   meta(upper_bound,784).
   meta(lower_bound,784).
% ==========================


machine(0..10).

%--- Job 0
job(0).
operation(0,0,4,18).
operation(0,1,7,21).
operation(0,2,9,41).
operation(0,3,2,45).
operation(0,4,3,38).
operation(0,5,8,50).
operation(0,6,5,84).
operation(0,7,6,29).
operation(0,8,1,23).
operation(0,9,0,82).

%--- Job 1
job(1).
operation(1,10,8,57).
operation(1,11,5,16).
operation(1,12,1,52).
operation(1,13,7,74).
operation(1,14,2,38).
operation(1,15,3,54).
operation(1,16,6,62).
operation(1,17,9,37).
operation(1,18,4,54).
operation(1,19,0,52).

%--- Job 2
job(2).
operation(2,20,2,30).
operation(2,21,4,79).
operation(2,22,3,68).
operation(2,23,1,61).
operation(2,24,8,11).
operation(2,25,6,89).
operation(2,26,7,89).
operation(2,27,0,81).
operation(2,28,9,81).
operation(2,29,5,57).

%--- Job 3
job(3).
operation(3,30,0,91).
operation(3,31,8,8).
operation(3,32,3,33).
operation(3,33,7,55).
operation(3,34,5,20).
operation(3,35,2,20).
operation(3,36,4,32).
operation(3,37,6,84).
operation(3,38,1,66).
operation(3,39,9,24).

%--- Job 4
job(4).
operation(4,40,9,40).
operation(4,41,0,7).
operation(4,42,4,19).
operation(4,43,8,7).
operation(4,44,6,83).
operation(4,45,2,64).
operation(4,46,5,56).
operation(4,47,3,54).
operation(4,48,7,8).
operation(4,49,1,39).

%--- Job 5
job(5).
operation(5,50,3,91).
operation(5,51,2,64).
operation(5,52,5,40).
operation(5,53,0,63).
operation(5,54,7,98).
operation(5,55,4,74).
operation(5,56,8,61).
operation(5,57,1,6).
operation(5,58,6,42).
operation(5,59,9,15).

%--- Job 6
job(6).
operation(6,60,1,80).
operation(6,61,7,39).
operation(6,62,8,24).
operation(6,63,3,75).
operation(6,64,4,75).
operation(6,65,5,6).
operation(6,66,6,44).
operation(6,67,0,26).
operation(6,68,2,87).
operation(6,69,9,22).

%--- Job 7
job(7).
operation(7,70,1,15).
operation(7,71,7,43).
operation(7,72,2,20).
operation(7,73,0,12).
operation(7,74,8,26).
operation(7,75,6,61).
operation(7,76,3,79).
operation(7,77,9,22).
operation(7,78,5,8).
operation(7,79,4,80).

%--- Job 8
job(8).
operation(8,80,2,62).
operation(8,81,3,96).
operation(8,82,4,22).
operation(8,83,9,5).
operation(8,84,0,63).
operation(8,85,6,33).
operation(8,86,7,10).
operation(8,87,8,18).
operation(8,88,1,36).
operation(8,89,5,40).

%--- Job 9
job(9).
operation(9,90,1,96).
operation(9,91,0,89).
operation(9,92,5,64).
operation(9,93,3,95).
operation(9,94,9,23).
operation(9,95,7,18).
operation(9,96,8,15).
operation(9,97,2,64).
operation(9,98,6,38).
operation(9,99,4,8).

