% ========= Metadata =========
   meta(name,la18).
   meta(num_jobs,10).
   meta(num_machines,10).
   meta(num_operations,100).
   meta(optimum,848).
   meta(upper_bound,848).
   meta(lower_bound,848).
% ==========================


machine(0..10).

%--- Job 0
job(0).
operation(0,0,6,54).
operation(0,1,0,87).
operation(0,2,4,48).
operation(0,3,3,60).
operation(0,4,7,39).
operation(0,5,8,35).
operation(0,6,1,72).
operation(0,7,5,95).
operation(0,8,2,66).
operation(0,9,9,5).

%--- Job 1
job(1).
operation(1,10,3,20).
operation(1,11,9,46).
operation(1,12,6,34).
operation(1,13,5,55).
operation(1,14,0,97).
operation(1,15,8,19).
operation(1,16,4,59).
operation(1,17,2,21).
operation(1,18,7,37).
operation(1,19,1,46).

%--- Job 2
job(2).
operation(2,20,4,45).
operation(2,21,1,24).
operation(2,22,8,28).
operation(2,23,0,28).
operation(2,24,7,83).
operation(2,25,6,78).
operation(2,26,5,23).
operation(2,27,3,25).
operation(2,28,9,5).
operation(2,29,2,73).

%--- Job 3
job(3).
operation(3,30,9,12).
operation(3,31,1,37).
operation(3,32,4,38).
operation(3,33,3,71).
operation(3,34,8,33).
operation(3,35,2,12).
operation(3,36,6,55).
operation(3,37,0,53).
operation(3,38,7,87).
operation(3,39,5,29).

%--- Job 4
job(4).
operation(4,40,3,83).
operation(4,41,2,49).
operation(4,42,6,23).
operation(4,43,9,27).
operation(4,44,7,65).
operation(4,45,0,48).
operation(4,46,4,90).
operation(4,47,5,7).
operation(4,48,1,40).
operation(4,49,8,17).

%--- Job 5
job(5).
operation(5,50,1,66).
operation(5,51,4,25).
operation(5,52,0,62).
operation(5,53,2,84).
operation(5,54,9,13).
operation(5,55,6,64).
operation(5,56,7,46).
operation(5,57,8,59).
operation(5,58,5,19).
operation(5,59,3,85).

%--- Job 6
job(6).
operation(6,60,1,73).
operation(6,61,3,80).
operation(6,62,0,41).
operation(6,63,2,53).
operation(6,64,9,47).
operation(6,65,7,57).
operation(6,66,8,74).
operation(6,67,4,14).
operation(6,68,6,67).
operation(6,69,5,88).

%--- Job 7
job(7).
operation(7,70,5,64).
operation(7,71,3,84).
operation(7,72,6,46).
operation(7,73,1,78).
operation(7,74,0,84).
operation(7,75,7,26).
operation(7,76,8,28).
operation(7,77,9,52).
operation(7,78,2,41).
operation(7,79,4,63).

%--- Job 8
job(8).
operation(8,80,1,11).
operation(8,81,0,64).
operation(8,82,7,67).
operation(8,83,4,85).
operation(8,84,3,10).
operation(8,85,5,73).
operation(8,86,9,38).
operation(8,87,8,95).
operation(8,88,6,97).
operation(8,89,2,17).

%--- Job 9
job(9).
operation(9,90,4,60).
operation(9,91,8,32).
operation(9,92,2,95).
operation(9,93,3,93).
operation(9,94,1,65).
operation(9,95,6,85).
operation(9,96,7,43).
operation(9,97,9,85).
operation(9,98,5,46).
operation(9,99,0,59).

