% ========= Metadata =========
   meta(name,la19).
   meta(num_jobs,10).
   meta(num_machines,10).
   meta(num_operations,100).
   meta(optimum,842).
   meta(upper_bound,842).
   meta(lower_bound,842).
% ==========================


machine(0..10).

%--- Job 0
job(0).
operation(0,0,2,44).
operation(0,1,3,5).
operation(0,2,5,58).
operation(0,3,4,97).
operation(0,4,0,9).
operation(0,5,7,84).
operation(0,6,8,77).
operation(0,7,9,96).
operation(0,8,1,58).
operation(0,9,6,89).

%--- Job 1
job(1).
operation(1,10,4,15).
operation(1,11,7,31).
operation(1,12,1,87).
operation(1,13,8,57).
operation(1,14,0,77).
operation(1,15,3,85).
operation(1,16,2,81).
operation(1,17,5,39).
operation(1,18,9,73).
operation(1,19,6,21).

%--- Job 2
job(2).
operation(2,20,9,82).
operation(2,21,6,22).
operation(2,22,4,10).
operation(2,23,3,70).
operation(2,24,1,49).
operation(2,25,0,40).
operation(2,26,8,34).
operation(2,27,2,48).
operation(2,28,7,80).
operation(2,29,5,71).

%--- Job 3
job(3).
operation(3,30,1,91).
operation(3,31,2,17).
operation(3,32,7,62).
operation(3,33,5,75).
operation(3,34,8,47).
operation(3,35,4,11).
operation(3,36,3,7).
operation(3,37,6,72).
operation(3,38,9,35).
operation(3,39,0,55).

%--- Job 4
job(4).
operation(4,40,6,71).
operation(4,41,1,90).
operation(4,42,3,75).
operation(4,43,0,64).
operation(4,44,2,94).
operation(4,45,8,15).
operation(4,46,4,12).
operation(4,47,7,67).
operation(4,48,9,20).
operation(4,49,5,50).

%--- Job 5
job(5).
operation(5,50,7,70).
operation(5,51,5,93).
operation(5,52,8,77).
operation(5,53,2,29).
operation(5,54,4,58).
operation(5,55,6,93).
operation(5,56,3,68).
operation(5,57,1,57).
operation(5,58,9,7).
operation(5,59,0,52).

%--- Job 6
job(6).
operation(6,60,6,87).
operation(6,61,1,63).
operation(6,62,4,26).
operation(6,63,5,6).
operation(6,64,2,82).
operation(6,65,3,27).
operation(6,66,7,56).
operation(6,67,8,48).
operation(6,68,9,36).
operation(6,69,0,95).

%--- Job 7
job(7).
operation(7,70,0,36).
operation(7,71,5,15).
operation(7,72,8,41).
operation(7,73,9,78).
operation(7,74,3,76).
operation(7,75,6,84).
operation(7,76,4,30).
operation(7,77,7,76).
operation(7,78,2,36).
operation(7,79,1,8).

%--- Job 8
job(8).
operation(8,80,5,88).
operation(8,81,2,81).
operation(8,82,3,13).
operation(8,83,6,82).
operation(8,84,4,54).
operation(8,85,7,13).
operation(8,86,8,29).
operation(8,87,9,40).
operation(8,88,1,78).
operation(8,89,0,75).

%--- Job 9
job(9).
operation(9,90,9,88).
operation(9,91,4,54).
operation(9,92,6,64).
operation(9,93,7,32).
operation(9,94,0,52).
operation(9,95,2,6).
operation(9,96,8,54).
operation(9,97,5,82).
operation(9,98,3,6).
operation(9,99,1,26).

