% ========= Metadata =========
   meta(name,la21).
   meta(num_jobs,15).
   meta(num_machines,10).
   meta(num_operations,150).
   meta(optimum,1046).
   meta(upper_bound,1046).
   meta(lower_bound,1046).
% ==========================


machine(0..10).

%--- Job 0
job(0).
operation(0,0,2,34).
operation(0,1,3,55).
operation(0,2,5,95).
operation(0,3,9,16).
operation(0,4,4,21).
operation(0,5,6,71).
operation(0,6,0,53).
operation(0,7,8,52).
operation(0,8,1,21).
operation(0,9,7,26).

%--- Job 1
job(1).
operation(1,10,3,39).
operation(1,11,2,31).
operation(1,12,0,12).
operation(1,13,1,42).
operation(1,14,9,79).
operation(1,15,8,77).
operation(1,16,6,77).
operation(1,17,5,98).
operation(1,18,4,55).
operation(1,19,7,66).

%--- Job 2
job(2).
operation(2,20,1,19).
operation(2,21,0,83).
operation(2,22,3,34).
operation(2,23,4,92).
operation(2,24,6,54).
operation(2,25,9,79).
operation(2,26,8,62).
operation(2,27,5,37).
operation(2,28,2,64).
operation(2,29,7,43).

%--- Job 3
job(3).
operation(3,30,4,60).
operation(3,31,2,87).
operation(3,32,8,24).
operation(3,33,5,77).
operation(3,34,3,69).
operation(3,35,7,38).
operation(3,36,1,87).
operation(3,37,6,41).
operation(3,38,9,83).
operation(3,39,0,93).

%--- Job 4
job(4).
operation(4,40,8,79).
operation(4,41,9,77).
operation(4,42,2,98).
operation(4,43,4,96).
operation(4,44,3,17).
operation(4,45,0,44).
operation(4,46,7,43).
operation(4,47,6,75).
operation(4,48,1,49).
operation(4,49,5,25).

%--- Job 5
job(5).
operation(5,50,8,35).
operation(5,51,7,95).
operation(5,52,6,9).
operation(5,53,9,10).
operation(5,54,2,35).
operation(5,55,1,7).
operation(5,56,5,28).
operation(5,57,4,61).
operation(5,58,0,95).
operation(5,59,3,76).

%--- Job 6
job(6).
operation(6,60,4,28).
operation(6,61,5,59).
operation(6,62,3,16).
operation(6,63,9,43).
operation(6,64,0,46).
operation(6,65,8,50).
operation(6,66,6,52).
operation(6,67,7,27).
operation(6,68,2,59).
operation(6,69,1,91).

%--- Job 7
job(7).
operation(7,70,5,9).
operation(7,71,4,20).
operation(7,72,2,39).
operation(7,73,6,54).
operation(7,74,1,45).
operation(7,75,7,71).
operation(7,76,0,87).
operation(7,77,3,41).
operation(7,78,9,43).
operation(7,79,8,14).

%--- Job 8
job(8).
operation(8,80,1,28).
operation(8,81,5,33).
operation(8,82,0,78).
operation(8,83,3,26).
operation(8,84,2,37).
operation(8,85,7,8).
operation(8,86,8,66).
operation(8,87,6,89).
operation(8,88,9,42).
operation(8,89,4,33).

%--- Job 9
job(9).
operation(9,90,2,94).
operation(9,91,5,84).
operation(9,92,6,78).
operation(9,93,9,81).
operation(9,94,1,74).
operation(9,95,3,27).
operation(9,96,8,69).
operation(9,97,0,69).
operation(9,98,7,45).
operation(9,99,4,96).

%--- Job 10
job(10).
operation(10,100,1,31).
operation(10,101,4,24).
operation(10,102,0,20).
operation(10,103,2,17).
operation(10,104,9,25).
operation(10,105,8,81).
operation(10,106,5,76).
operation(10,107,3,87).
operation(10,108,7,32).
operation(10,109,6,18).

%--- Job 11
job(11).
operation(11,110,5,28).
operation(11,111,9,97).
operation(11,112,0,58).
operation(11,113,4,45).
operation(11,114,6,76).
operation(11,115,3,99).
operation(11,116,2,23).
operation(11,117,1,72).
operation(11,118,8,90).
operation(11,119,7,86).

%--- Job 12
job(12).
operation(12,120,5,27).
operation(12,121,9,48).
operation(12,122,8,27).
operation(12,123,7,62).
operation(12,124,4,98).
operation(12,125,6,67).
operation(12,126,3,48).
operation(12,127,0,42).
operation(12,128,1,46).
operation(12,129,2,17).

%--- Job 13
job(13).
operation(13,130,1,12).
operation(13,131,8,50).
operation(13,132,0,80).
operation(13,133,2,50).
operation(13,134,9,80).
operation(13,135,3,19).
operation(13,136,5,28).
operation(13,137,6,63).
operation(13,138,4,94).
operation(13,139,7,98).

%--- Job 14
job(14).
operation(14,140,4,61).
operation(14,141,3,55).
operation(14,142,6,37).
operation(14,143,5,14).
operation(14,144,2,50).
operation(14,145,8,79).
operation(14,146,1,41).
operation(14,147,9,72).
operation(14,148,7,18).
operation(14,149,0,75).

