% ========= Metadata =========
   meta(name,la24).
   meta(num_jobs,15).
   meta(num_machines,10).
   meta(num_operations,150).
   meta(optimum,935).
   meta(upper_bound,935).
   meta(lower_bound,935).
% ==========================


machine(0..10).

%--- Job 0
job(0).
operation(0,0,7,8).
operation(0,1,9,75).
operation(0,2,0,72).
operation(0,3,6,74).
operation(0,4,4,30).
operation(0,5,8,43).
operation(0,6,2,38).
operation(0,7,5,98).
operation(0,8,1,26).
operation(0,9,3,19).

%--- Job 1
job(1).
operation(1,10,6,19).
operation(1,11,8,73).
operation(1,12,3,43).
operation(1,13,0,23).
operation(1,14,1,85).
operation(1,15,4,39).
operation(1,16,5,13).
operation(1,17,9,26).
operation(1,18,2,67).
operation(1,19,7,9).

%--- Job 2
job(2).
operation(2,20,1,50).
operation(2,21,3,93).
operation(2,22,5,80).
operation(2,23,4,7).
operation(2,24,0,55).
operation(2,25,2,61).
operation(2,26,6,57).
operation(2,27,8,72).
operation(2,28,9,42).
operation(2,29,7,46).

%--- Job 3
job(3).
operation(3,30,1,68).
operation(3,31,7,43).
operation(3,32,4,99).
operation(3,33,6,60).
operation(3,34,5,68).
operation(3,35,0,91).
operation(3,36,8,11).
operation(3,37,3,96).
operation(3,38,9,11).
operation(3,39,2,72).

%--- Job 4
job(4).
operation(4,40,7,84).
operation(4,41,2,34).
operation(4,42,8,40).
operation(4,43,5,7).
operation(4,44,1,70).
operation(4,45,6,74).
operation(4,46,3,12).
operation(4,47,0,43).
operation(4,48,9,69).
operation(4,49,4,30).

%--- Job 5
job(5).
operation(5,50,8,60).
operation(5,51,0,49).
operation(5,52,4,59).
operation(5,53,5,72).
operation(5,54,9,63).
operation(5,55,1,69).
operation(5,56,7,99).
operation(5,57,6,45).
operation(5,58,3,27).
operation(5,59,2,9).

%--- Job 6
job(6).
operation(6,60,6,71).
operation(6,61,2,91).
operation(6,62,8,65).
operation(6,63,1,90).
operation(6,64,9,98).
operation(6,65,4,8).
operation(6,66,7,50).
operation(6,67,0,75).
operation(6,68,5,37).
operation(6,69,3,17).

%--- Job 7
job(7).
operation(7,70,8,62).
operation(7,71,7,90).
operation(7,72,5,98).
operation(7,73,3,31).
operation(7,74,2,91).
operation(7,75,4,38).
operation(7,76,9,72).
operation(7,77,1,9).
operation(7,78,0,72).
operation(7,79,6,49).

%--- Job 8
job(8).
operation(8,80,4,35).
operation(8,81,0,39).
operation(8,82,9,74).
operation(8,83,5,25).
operation(8,84,7,47).
operation(8,85,3,52).
operation(8,86,2,63).
operation(8,87,8,21).
operation(8,88,6,35).
operation(8,89,1,80).

%--- Job 9
job(9).
operation(9,90,9,58).
operation(9,91,0,5).
operation(9,92,3,50).
operation(9,93,8,52).
operation(9,94,1,88).
operation(9,95,6,20).
operation(9,96,2,68).
operation(9,97,5,24).
operation(9,98,4,53).
operation(9,99,7,57).

%--- Job 10
job(10).
operation(10,100,7,99).
operation(10,101,3,91).
operation(10,102,4,33).
operation(10,103,5,19).
operation(10,104,2,18).
operation(10,105,6,38).
operation(10,106,0,24).
operation(10,107,9,35).
operation(10,108,1,49).
operation(10,109,8,9).

%--- Job 11
job(11).
operation(11,110,0,68).
operation(11,111,3,60).
operation(11,112,2,77).
operation(11,113,7,10).
operation(11,114,8,60).
operation(11,115,5,15).
operation(11,116,9,72).
operation(11,117,1,18).
operation(11,118,6,90).
operation(11,119,4,18).

%--- Job 12
job(12).
operation(12,120,9,79).
operation(12,121,1,60).
operation(12,122,3,56).
operation(12,123,6,91).
operation(12,124,2,40).
operation(12,125,8,86).
operation(12,126,7,72).
operation(12,127,0,80).
operation(12,128,5,89).
operation(12,129,4,51).

%--- Job 13
job(13).
operation(13,130,4,10).
operation(13,131,2,92).
operation(13,132,5,23).
operation(13,133,6,46).
operation(13,134,8,40).
operation(13,135,7,72).
operation(13,136,3,6).
operation(13,137,1,23).
operation(13,138,0,95).
operation(13,139,9,34).

%--- Job 14
job(14).
operation(14,140,2,24).
operation(14,141,5,29).
operation(14,142,9,49).
operation(14,143,8,55).
operation(14,144,0,47).
operation(14,145,6,77).
operation(14,146,3,77).
operation(14,147,7,8).
operation(14,148,1,28).
operation(14,149,4,48).

