% ========= Metadata =========
   meta(name,la25).
   meta(num_jobs,15).
   meta(num_machines,10).
   meta(num_operations,150).
   meta(optimum,977).
   meta(upper_bound,977).
   meta(lower_bound,977).
% ==========================


machine(0..10).

%--- Job 0
job(0).
operation(0,0,8,14).
operation(0,1,4,75).
operation(0,2,3,12).
operation(0,3,2,38).
operation(0,4,0,76).
operation(0,5,5,97).
operation(0,6,9,12).
operation(0,7,1,29).
operation(0,8,7,44).
operation(0,9,6,66).

%--- Job 1
job(1).
operation(1,10,5,38).
operation(1,11,3,82).
operation(1,12,2,85).
operation(1,13,4,58).
operation(1,14,6,87).
operation(1,15,9,89).
operation(1,16,0,43).
operation(1,17,1,80).
operation(1,18,7,69).
operation(1,19,8,92).

%--- Job 2
job(2).
operation(2,20,9,5).
operation(2,21,1,84).
operation(2,22,0,43).
operation(2,23,6,48).
operation(2,24,4,8).
operation(2,25,7,7).
operation(2,26,3,41).
operation(2,27,5,61).
operation(2,28,8,66).
operation(2,29,2,14).

%--- Job 3
job(3).
operation(3,30,2,42).
operation(3,31,1,8).
operation(3,32,0,96).
operation(3,33,5,19).
operation(3,34,4,59).
operation(3,35,7,97).
operation(3,36,9,73).
operation(3,37,8,43).
operation(3,38,3,74).
operation(3,39,6,41).

%--- Job 4
job(4).
operation(4,40,6,55).
operation(4,41,2,70).
operation(4,42,3,75).
operation(4,43,8,42).
operation(4,44,4,37).
operation(4,45,7,23).
operation(4,46,1,48).
operation(4,47,5,5).
operation(4,48,9,38).
operation(4,49,0,7).

%--- Job 5
job(5).
operation(5,50,8,9).
operation(5,51,2,72).
operation(5,52,7,31).
operation(5,53,0,79).
operation(5,54,5,73).
operation(5,55,3,95).
operation(5,56,4,25).
operation(5,57,6,43).
operation(5,58,9,60).
operation(5,59,1,56).

%--- Job 6
job(6).
operation(6,60,0,97).
operation(6,61,2,64).
operation(6,62,3,78).
operation(6,63,5,21).
operation(6,64,4,94).
operation(6,65,9,31).
operation(6,66,8,53).
operation(6,67,6,16).
operation(6,68,7,86).
operation(6,69,1,7).

%--- Job 7
job(7).
operation(7,70,3,86).
operation(7,71,7,85).
operation(7,72,9,63).
operation(7,73,0,61).
operation(7,74,2,65).
operation(7,75,4,30).
operation(7,76,5,32).
operation(7,77,1,33).
operation(7,78,8,44).
operation(7,79,6,59).

%--- Job 8
job(8).
operation(8,80,2,44).
operation(8,81,3,16).
operation(8,82,4,11).
operation(8,83,6,45).
operation(8,84,1,30).
operation(8,85,9,84).
operation(8,86,8,93).
operation(8,87,0,60).
operation(8,88,5,61).
operation(8,89,7,90).

%--- Job 9
job(9).
operation(9,90,7,36).
operation(9,91,8,31).
operation(9,92,4,47).
operation(9,93,6,52).
operation(9,94,0,32).
operation(9,95,5,11).
operation(9,96,2,28).
operation(9,97,9,35).
operation(9,98,3,20).
operation(9,99,1,49).

%--- Job 10
job(10).
operation(10,100,8,20).
operation(10,101,6,49).
operation(10,102,7,74).
operation(10,103,4,10).
operation(10,104,5,17).
operation(10,105,3,34).
operation(10,106,0,85).
operation(10,107,2,77).
operation(10,108,9,68).
operation(10,109,1,84).

%--- Job 11
job(11).
operation(11,110,1,85).
operation(11,111,5,7).
operation(11,112,8,71).
operation(11,113,6,59).
operation(11,114,4,76).
operation(11,115,0,17).
operation(11,116,3,29).
operation(11,117,2,17).
operation(11,118,7,48).
operation(11,119,9,13).

%--- Job 12
job(12).
operation(12,120,2,15).
operation(12,121,6,87).
operation(12,122,7,11).
operation(12,123,1,39).
operation(12,124,4,39).
operation(12,125,8,43).
operation(12,126,0,19).
operation(12,127,3,32).
operation(12,128,9,16).
operation(12,129,5,64).

%--- Job 13
job(13).
operation(13,130,6,32).
operation(13,131,2,92).
operation(13,132,5,33).
operation(13,133,8,82).
operation(13,134,1,83).
operation(13,135,7,57).
operation(13,136,9,99).
operation(13,137,4,91).
operation(13,138,3,99).
operation(13,139,0,8).

%--- Job 14
job(14).
operation(14,140,4,88).
operation(14,141,7,7).
operation(14,142,8,27).
operation(14,143,1,38).
operation(14,144,3,91).
operation(14,145,2,69).
operation(14,146,6,21).
operation(14,147,9,62).
operation(14,148,5,39).
operation(14,149,0,48).

