% ========= Metadata =========
   meta(name,la26).
   meta(num_jobs,20).
   meta(num_machines,10).
   meta(num_operations,200).
   meta(optimum,1218).
   meta(upper_bound,1218).
   meta(lower_bound,1218).
% ==========================


machine(0..10).

%--- Job 0
job(0).
operation(0,0,8,52).
operation(0,1,7,26).
operation(0,2,6,71).
operation(0,3,9,16).
operation(0,4,2,34).
operation(0,5,1,21).
operation(0,6,5,95).
operation(0,7,4,21).
operation(0,8,0,53).
operation(0,9,3,55).

%--- Job 1
job(1).
operation(1,10,4,55).
operation(1,11,5,98).
operation(1,12,3,39).
operation(1,13,9,79).
operation(1,14,0,12).
operation(1,15,8,77).
operation(1,16,6,77).
operation(1,17,7,66).
operation(1,18,2,31).
operation(1,19,1,42).

%--- Job 2
job(2).
operation(2,20,5,37).
operation(2,21,4,92).
operation(2,22,2,64).
operation(2,23,6,54).
operation(2,24,1,19).
operation(2,25,7,43).
operation(2,26,0,83).
operation(2,27,3,34).
operation(2,28,9,79).
operation(2,29,8,62).

%--- Job 3
job(3).
operation(3,30,1,87).
operation(3,31,5,77).
operation(3,32,0,93).
operation(3,33,3,69).
operation(3,34,2,87).
operation(3,35,7,38).
operation(3,36,8,24).
operation(3,37,6,41).
operation(3,38,9,83).
operation(3,39,4,60).

%--- Job 4
job(4).
operation(4,40,2,98).
operation(4,41,5,25).
operation(4,42,6,75).
operation(4,43,9,77).
operation(4,44,1,49).
operation(4,45,3,17).
operation(4,46,8,79).
operation(4,47,0,44).
operation(4,48,7,43).
operation(4,49,4,96).

%--- Job 5
job(5).
operation(5,50,1,7).
operation(5,51,4,61).
operation(5,52,0,95).
operation(5,53,2,35).
operation(5,54,9,10).
operation(5,55,8,35).
operation(5,56,5,28).
operation(5,57,3,76).
operation(5,58,7,95).
operation(5,59,6,9).

%--- Job 6
job(6).
operation(6,60,5,59).
operation(6,61,9,43).
operation(6,62,0,46).
operation(6,63,4,28).
operation(6,64,6,52).
operation(6,65,3,16).
operation(6,66,2,59).
operation(6,67,1,91).
operation(6,68,8,50).
operation(6,69,7,27).

%--- Job 7
job(7).
operation(7,70,5,9).
operation(7,71,9,43).
operation(7,72,8,14).
operation(7,73,7,71).
operation(7,74,4,20).
operation(7,75,6,54).
operation(7,76,3,41).
operation(7,77,0,87).
operation(7,78,1,45).
operation(7,79,2,39).

%--- Job 8
job(8).
operation(8,80,1,28).
operation(8,81,8,66).
operation(8,82,0,78).
operation(8,83,2,37).
operation(8,84,9,42).
operation(8,85,3,26).
operation(8,86,5,33).
operation(8,87,6,89).
operation(8,88,4,33).
operation(8,89,7,8).

%--- Job 9
job(9).
operation(9,90,4,96).
operation(9,91,3,27).
operation(9,92,6,78).
operation(9,93,5,84).
operation(9,94,2,94).
operation(9,95,8,69).
operation(9,96,1,74).
operation(9,97,9,81).
operation(9,98,7,45).
operation(9,99,0,69).

%--- Job 10
job(10).
operation(10,100,4,24).
operation(10,101,7,32).
operation(10,102,9,25).
operation(10,103,2,17).
operation(10,104,3,87).
operation(10,105,8,81).
operation(10,106,5,76).
operation(10,107,6,18).
operation(10,108,1,31).
operation(10,109,0,20).

%--- Job 11
job(11).
operation(11,110,8,90).
operation(11,111,5,28).
operation(11,112,1,72).
operation(11,113,7,86).
operation(11,114,2,23).
operation(11,115,3,99).
operation(11,116,6,76).
operation(11,117,9,97).
operation(11,118,4,45).
operation(11,119,0,58).

%--- Job 12
job(12).
operation(12,120,2,17).
operation(12,121,4,98).
operation(12,122,3,48).
operation(12,123,1,46).
operation(12,124,8,27).
operation(12,125,6,67).
operation(12,126,7,62).
operation(12,127,0,42).
operation(12,128,9,48).
operation(12,129,5,27).

%--- Job 13
job(13).
operation(13,130,0,80).
operation(13,131,8,50).
operation(13,132,3,19).
operation(13,133,7,98).
operation(13,134,5,28).
operation(13,135,2,50).
operation(13,136,4,94).
operation(13,137,6,63).
operation(13,138,1,12).
operation(13,139,9,80).

%--- Job 14
job(14).
operation(14,140,9,72).
operation(14,141,0,75).
operation(14,142,4,61).
operation(14,143,8,79).
operation(14,144,6,37).
operation(14,145,2,50).
operation(14,146,5,14).
operation(14,147,3,55).
operation(14,148,7,18).
operation(14,149,1,41).

%--- Job 15
job(15).
operation(15,150,3,96).
operation(15,151,2,14).
operation(15,152,5,57).
operation(15,153,0,47).
operation(15,154,7,65).
operation(15,155,4,75).
operation(15,156,8,79).
operation(15,157,1,71).
operation(15,158,6,60).
operation(15,159,9,22).

%--- Job 16
job(16).
operation(16,160,1,31).
operation(16,161,7,47).
operation(16,162,8,58).
operation(16,163,3,32).
operation(16,164,4,44).
operation(16,165,5,58).
operation(16,166,6,34).
operation(16,167,0,33).
operation(16,168,2,69).
operation(16,169,9,51).

%--- Job 17
job(17).
operation(17,170,1,44).
operation(17,171,7,40).
operation(17,172,2,17).
operation(17,173,0,62).
operation(17,174,8,66).
operation(17,175,6,15).
operation(17,176,3,29).
operation(17,177,9,38).
operation(17,178,5,8).
operation(17,179,4,97).

%--- Job 18
job(18).
operation(18,180,2,58).
operation(18,181,3,50).
operation(18,182,4,63).
operation(18,183,9,87).
operation(18,184,0,57).
operation(18,185,6,21).
operation(18,186,7,57).
operation(18,187,8,32).
operation(18,188,1,39).
operation(18,189,5,20).

%--- Job 19
job(19).
operation(19,190,1,85).
operation(19,191,0,84).
operation(19,192,5,56).
operation(19,193,3,61).
operation(19,194,9,15).
operation(19,195,7,70).
operation(19,196,8,30).
operation(19,197,2,90).
operation(19,198,6,67).
operation(19,199,4,20).

