% ========= Metadata =========
   meta(name,la28).
   meta(num_jobs,20).
   meta(num_machines,10).
   meta(num_operations,200).
   meta(optimum,1216).
   meta(upper_bound,1216).
   meta(lower_bound,1216).
% ==========================


machine(0..10).

%--- Job 0
job(0).
operation(0,0,8,32).
operation(0,1,1,81).
operation(0,2,4,55).
operation(0,3,7,40).
operation(0,4,0,6).
operation(0,5,5,19).
operation(0,6,9,81).
operation(0,7,3,37).
operation(0,8,2,40).
operation(0,9,6,9).

%--- Job 1
job(1).
operation(1,10,2,70).
operation(1,11,3,55).
operation(1,12,7,21).
operation(1,13,4,64).
operation(1,14,1,46).
operation(1,15,8,25).
operation(1,16,9,65).
operation(1,17,0,77).
operation(1,18,5,65).
operation(1,19,6,15).

%--- Job 2
job(2).
operation(2,20,7,84).
operation(2,21,4,89).
operation(2,22,3,24).
operation(2,23,1,44).
operation(2,24,2,85).
operation(2,25,8,31).
operation(2,26,9,29).
operation(2,27,6,83).
operation(2,28,5,37).
operation(2,29,0,40).

%--- Job 3
job(3).
operation(3,30,4,80).
operation(3,31,5,59).
operation(3,32,0,8).
operation(3,33,2,30).
operation(3,34,6,77).
operation(3,35,3,38).
operation(3,36,1,80).
operation(3,37,7,56).
operation(3,38,9,41).
operation(3,39,8,97).

%--- Job 4
job(4).
operation(4,40,6,40).
operation(4,41,2,71).
operation(4,42,0,91).
operation(4,43,7,7).
operation(4,44,9,59).
operation(4,45,8,80).
operation(4,46,3,50).
operation(4,47,5,56).
operation(4,48,1,17).
operation(4,49,4,88).

%--- Job 5
job(5).
operation(5,50,7,36).
operation(5,51,9,10).
operation(5,52,0,45).
operation(5,53,6,9).
operation(5,54,4,54).
operation(5,55,8,96).
operation(5,56,2,8).
operation(5,57,5,77).
operation(5,58,1,29).
operation(5,59,3,58).

%--- Job 6
job(6).
operation(6,60,6,99).
operation(6,61,8,86).
operation(6,62,3,92).
operation(6,63,0,28).
operation(6,64,1,98).
operation(6,65,4,70).
operation(6,66,5,87).
operation(6,67,9,96).
operation(6,68,2,73).
operation(6,69,7,27).

%--- Job 7
job(7).
operation(7,70,1,95).
operation(7,71,3,85).
operation(7,72,5,56).
operation(7,73,4,52).
operation(7,74,0,59).
operation(7,75,2,41).
operation(7,76,6,81).
operation(7,77,8,39).
operation(7,78,9,32).
operation(7,79,7,92).

%--- Job 8
job(8).
operation(8,80,1,7).
operation(8,81,7,69).
operation(8,82,4,93).
operation(8,83,6,27).
operation(8,84,5,22).
operation(8,85,0,88).
operation(8,86,8,45).
operation(8,87,3,60).
operation(8,88,9,49).
operation(8,89,2,12).

%--- Job 9
job(9).
operation(9,90,7,33).
operation(9,91,2,61).
operation(9,92,8,44).
operation(9,93,5,26).
operation(9,94,1,84).
operation(9,95,6,82).
operation(9,96,3,68).
operation(9,97,0,21).
operation(9,98,9,71).
operation(9,99,4,99).

%--- Job 10
job(10).
operation(10,100,8,43).
operation(10,101,0,72).
operation(10,102,4,30).
operation(10,103,5,98).
operation(10,104,9,75).
operation(10,105,1,26).
operation(10,106,7,8).
operation(10,107,6,74).
operation(10,108,3,19).
operation(10,109,2,38).

%--- Job 11
job(11).
operation(11,110,6,19).
operation(11,111,2,67).
operation(11,112,8,73).
operation(11,113,1,85).
operation(11,114,9,26).
operation(11,115,4,39).
operation(11,116,7,9).
operation(11,117,0,23).
operation(11,118,5,13).
operation(11,119,3,43).

%--- Job 12
job(12).
operation(12,120,8,72).
operation(12,121,7,46).
operation(12,122,5,80).
operation(12,123,3,93).
operation(12,124,2,61).
operation(12,125,4,7).
operation(12,126,9,42).
operation(12,127,1,50).
operation(12,128,0,55).
operation(12,129,6,57).

%--- Job 13
job(13).
operation(13,130,4,99).
operation(13,131,0,91).
operation(13,132,9,11).
operation(13,133,5,68).
operation(13,134,7,43).
operation(13,135,3,96).
operation(13,136,2,72).
operation(13,137,8,11).
operation(13,138,6,60).
operation(13,139,1,68).

%--- Job 14
job(14).
operation(14,140,9,69).
operation(14,141,0,43).
operation(14,142,3,12).
operation(14,143,8,40).
operation(14,144,1,70).
operation(14,145,6,74).
operation(14,146,2,34).
operation(14,147,5,7).
operation(14,148,4,30).
operation(14,149,7,84).

%--- Job 15
job(15).
operation(15,150,7,99).
operation(15,151,3,27).
operation(15,152,4,59).
operation(15,153,5,72).
operation(15,154,2,9).
operation(15,155,6,45).
operation(15,156,0,49).
operation(15,157,9,63).
operation(15,158,1,69).
operation(15,159,8,60).

%--- Job 16
job(16).
operation(16,160,0,75).
operation(16,161,3,17).
operation(16,162,2,91).
operation(16,163,7,50).
operation(16,164,8,65).
operation(16,165,5,37).
operation(16,166,9,98).
operation(16,167,1,90).
operation(16,168,6,71).
operation(16,169,4,8).

%--- Job 17
job(17).
operation(17,170,9,72).
operation(17,171,1,9).
operation(17,172,3,31).
operation(17,173,6,49).
operation(17,174,2,91).
operation(17,175,8,62).
operation(17,176,7,90).
operation(17,177,0,72).
operation(17,178,5,98).
operation(17,179,4,38).

%--- Job 18
job(18).
operation(18,180,4,35).
operation(18,181,2,63).
operation(18,182,5,25).
operation(18,183,6,35).
operation(18,184,8,21).
operation(18,185,7,47).
operation(18,186,3,52).
operation(18,187,1,80).
operation(18,188,0,39).
operation(18,189,9,74).

%--- Job 19
job(19).
operation(19,190,2,68).
operation(19,191,5,24).
operation(19,192,9,58).
operation(19,193,8,52).
operation(19,194,0,5).
operation(19,195,6,20).
operation(19,196,3,50).
operation(19,197,7,57).
operation(19,198,1,88).
operation(19,199,4,53).

