% ========= Metadata =========
   meta(name,la29).
   meta(num_jobs,20).
   meta(num_machines,10).
   meta(num_operations,200).
   meta(optimum,1152).
   meta(upper_bound,1152).
   meta(lower_bound,1152).
% ==========================


machine(0..10).

%--- Job 0
job(0).
operation(0,0,8,14).
operation(0,1,2,38).
operation(0,2,7,44).
operation(0,3,0,76).
operation(0,4,5,97).
operation(0,5,3,12).
operation(0,6,4,75).
operation(0,7,6,66).
operation(0,8,9,12).
operation(0,9,1,29).

%--- Job 1
job(1).
operation(1,10,0,43).
operation(1,11,2,85).
operation(1,12,3,82).
operation(1,13,5,38).
operation(1,14,4,58).
operation(1,15,9,89).
operation(1,16,8,92).
operation(1,17,6,87).
operation(1,18,7,69).
operation(1,19,1,80).

%--- Job 2
job(2).
operation(2,20,3,41).
operation(2,21,7,7).
operation(2,22,9,5).
operation(2,23,0,43).
operation(2,24,2,14).
operation(2,25,4,8).
operation(2,26,5,61).
operation(2,27,1,84).
operation(2,28,8,66).
operation(2,29,6,48).

%--- Job 3
job(3).
operation(3,30,2,42).
operation(3,31,3,74).
operation(3,32,4,59).
operation(3,33,6,41).
operation(3,34,1,8).
operation(3,35,9,73).
operation(3,36,8,43).
operation(3,37,0,96).
operation(3,38,5,19).
operation(3,39,7,97).

%--- Job 4
job(4).
operation(4,40,7,23).
operation(4,41,8,42).
operation(4,42,4,37).
operation(4,43,6,55).
operation(4,44,0,7).
operation(4,45,5,5).
operation(4,46,2,70).
operation(4,47,9,38).
operation(4,48,3,75).
operation(4,49,1,48).

%--- Job 5
job(5).
operation(5,50,8,9).
operation(5,51,6,43).
operation(5,52,7,31).
operation(5,53,4,25).
operation(5,54,5,73).
operation(5,55,3,95).
operation(5,56,0,79).
operation(5,57,2,72).
operation(5,58,9,60).
operation(5,59,1,56).

%--- Job 6
job(6).
operation(6,60,1,7).
operation(6,61,5,21).
operation(6,62,8,53).
operation(6,63,6,16).
operation(6,64,4,94).
operation(6,65,0,97).
operation(6,66,3,78).
operation(6,67,2,64).
operation(6,68,7,86).
operation(6,69,9,31).

%--- Job 7
job(7).
operation(7,70,2,65).
operation(7,71,6,59).
operation(7,72,7,85).
operation(7,73,1,33).
operation(7,74,4,30).
operation(7,75,8,44).
operation(7,76,0,61).
operation(7,77,3,86).
operation(7,78,9,63).
operation(7,79,5,32).

%--- Job 8
job(8).
operation(8,80,6,45).
operation(8,81,2,44).
operation(8,82,5,61).
operation(8,83,8,93).
operation(8,84,1,30).
operation(8,85,7,90).
operation(8,86,9,84).
operation(8,87,4,11).
operation(8,88,3,16).
operation(8,89,0,60).

%--- Job 9
job(9).
operation(9,90,4,47).
operation(9,91,7,36).
operation(9,92,8,31).
operation(9,93,1,49).
operation(9,94,3,20).
operation(9,95,2,28).
operation(9,96,6,52).
operation(9,97,9,35).
operation(9,98,5,11).
operation(9,99,0,32).

%--- Job 10
job(10).
operation(10,100,2,77).
operation(10,101,4,10).
operation(10,102,9,68).
operation(10,103,5,17).
operation(10,104,0,85).
operation(10,105,1,84).
operation(10,106,8,20).
operation(10,107,6,49).
operation(10,108,7,74).
operation(10,109,3,34).

%--- Job 11
job(11).
operation(11,110,0,17).
operation(11,111,5,7).
operation(11,112,1,85).
operation(11,113,3,29).
operation(11,114,2,17).
operation(11,115,4,76).
operation(11,116,6,59).
operation(11,117,8,71).
operation(11,118,9,13).
operation(11,119,7,48).

%--- Job 12
job(12).
operation(12,120,6,87).
operation(12,121,4,39).
operation(12,122,8,43).
operation(12,123,7,11).
operation(12,124,2,15).
operation(12,125,3,32).
operation(12,126,5,64).
operation(12,127,0,19).
operation(12,128,1,39).
operation(12,129,9,16).

%--- Job 13
job(13).
operation(13,130,5,33).
operation(13,131,3,99).
operation(13,132,6,32).
operation(13,133,4,91).
operation(13,134,8,82).
operation(13,135,2,92).
operation(13,136,9,99).
operation(13,137,7,57).
operation(13,138,1,83).
operation(13,139,0,8).

%--- Job 14
job(14).
operation(14,140,3,91).
operation(14,141,5,39).
operation(14,142,2,69).
operation(14,143,8,27).
operation(14,144,7,7).
operation(14,145,6,21).
operation(14,146,1,38).
operation(14,147,9,62).
operation(14,148,4,88).
operation(14,149,0,48).

%--- Job 15
job(15).
operation(15,150,2,67).
operation(15,151,7,80).
operation(15,152,3,24).
operation(15,153,0,88).
operation(15,154,4,18).
operation(15,155,1,44).
operation(15,156,8,45).
operation(15,157,9,64).
operation(15,158,5,80).
operation(15,159,6,38).

%--- Job 16
job(16).
operation(16,160,9,59).
operation(16,161,3,72).
operation(16,162,6,47).
operation(16,163,4,40).
operation(16,164,7,21).
operation(16,165,5,43).
operation(16,166,0,51).
operation(16,167,8,52).
operation(16,168,1,24).
operation(16,169,2,15).

%--- Job 17
job(17).
operation(17,170,3,70).
operation(17,171,2,31).
operation(17,172,6,20).
operation(17,173,8,76).
operation(17,174,1,40).
operation(17,175,7,43).
operation(17,176,0,32).
operation(17,177,5,88).
operation(17,178,9,5).
operation(17,179,4,77).

%--- Job 18
job(18).
operation(18,180,4,47).
operation(18,181,5,64).
operation(18,182,9,85).
operation(18,183,3,49).
operation(18,184,7,58).
operation(18,185,1,26).
operation(18,186,0,32).
operation(18,187,8,80).
operation(18,188,2,14).
operation(18,189,6,94).

%--- Job 19
job(19).
operation(19,190,5,59).
operation(19,191,2,96).
operation(19,192,0,5).
operation(19,193,7,79).
operation(19,194,8,34).
operation(19,195,4,75).
operation(19,196,3,26).
operation(19,197,6,9).
operation(19,198,9,23).
operation(19,199,1,11).

