% ========= Metadata =========
   meta(name,la31).
   meta(num_jobs,30).
   meta(num_machines,10).
   meta(num_operations,300).
   meta(optimum,1784).
   meta(upper_bound,1784).
   meta(lower_bound,1784).
% ==========================


machine(0..10).

%--- Job 0
job(0).
operation(0,0,4,21).
operation(0,1,7,26).
operation(0,2,9,16).
operation(0,3,2,34).
operation(0,4,3,55).
operation(0,5,8,52).
operation(0,6,5,95).
operation(0,7,6,71).
operation(0,8,1,21).
operation(0,9,0,53).

%--- Job 1
job(1).
operation(1,10,8,77).
operation(1,11,5,98).
operation(1,12,1,42).
operation(1,13,7,66).
operation(1,14,2,31).
operation(1,15,3,39).
operation(1,16,6,77).
operation(1,17,9,79).
operation(1,18,4,55).
operation(1,19,0,12).

%--- Job 2
job(2).
operation(2,20,2,64).
operation(2,21,4,92).
operation(2,22,3,34).
operation(2,23,1,19).
operation(2,24,8,62).
operation(2,25,6,54).
operation(2,26,7,43).
operation(2,27,0,83).
operation(2,28,9,79).
operation(2,29,5,37).

%--- Job 3
job(3).
operation(3,30,0,93).
operation(3,31,8,24).
operation(3,32,3,69).
operation(3,33,7,38).
operation(3,34,5,77).
operation(3,35,2,87).
operation(3,36,4,60).
operation(3,37,6,41).
operation(3,38,1,87).
operation(3,39,9,83).

%--- Job 4
job(4).
operation(4,40,9,77).
operation(4,41,0,44).
operation(4,42,4,96).
operation(4,43,8,79).
operation(4,44,6,75).
operation(4,45,2,98).
operation(4,46,5,25).
operation(4,47,3,17).
operation(4,48,7,43).
operation(4,49,1,49).

%--- Job 5
job(5).
operation(5,50,3,76).
operation(5,51,2,35).
operation(5,52,5,28).
operation(5,53,0,95).
operation(5,54,7,95).
operation(5,55,4,61).
operation(5,56,8,35).
operation(5,57,1,7).
operation(5,58,6,9).
operation(5,59,9,10).

%--- Job 6
job(6).
operation(6,60,1,91).
operation(6,61,7,27).
operation(6,62,8,50).
operation(6,63,3,16).
operation(6,64,4,28).
operation(6,65,5,59).
operation(6,66,6,52).
operation(6,67,0,46).
operation(6,68,2,59).
operation(6,69,9,43).

%--- Job 7
job(7).
operation(7,70,1,45).
operation(7,71,7,71).
operation(7,72,2,39).
operation(7,73,0,87).
operation(7,74,8,14).
operation(7,75,6,54).
operation(7,76,3,41).
operation(7,77,9,43).
operation(7,78,5,9).
operation(7,79,4,20).

%--- Job 8
job(8).
operation(8,80,2,37).
operation(8,81,3,26).
operation(8,82,4,33).
operation(8,83,9,42).
operation(8,84,0,78).
operation(8,85,6,89).
operation(8,86,7,8).
operation(8,87,8,66).
operation(8,88,1,28).
operation(8,89,5,33).

%--- Job 9
job(9).
operation(9,90,1,74).
operation(9,91,0,69).
operation(9,92,5,84).
operation(9,93,3,27).
operation(9,94,9,81).
operation(9,95,7,45).
operation(9,96,8,69).
operation(9,97,2,94).
operation(9,98,6,78).
operation(9,99,4,96).

%--- Job 10
job(10).
operation(10,100,5,76).
operation(10,101,7,32).
operation(10,102,6,18).
operation(10,103,0,20).
operation(10,104,3,87).
operation(10,105,2,17).
operation(10,106,9,25).
operation(10,107,4,24).
operation(10,108,1,31).
operation(10,109,8,81).

%--- Job 11
job(11).
operation(11,110,9,97).
operation(11,111,8,90).
operation(11,112,5,28).
operation(11,113,7,86).
operation(11,114,0,58).
operation(11,115,1,72).
operation(11,116,2,23).
operation(11,117,6,76).
operation(11,118,3,99).
operation(11,119,4,45).

%--- Job 12
job(12).
operation(12,120,9,48).
operation(12,121,5,27).
operation(12,122,6,67).
operation(12,123,7,62).
operation(12,124,4,98).
operation(12,125,0,42).
operation(12,126,1,46).
operation(12,127,8,27).
operation(12,128,3,48).
operation(12,129,2,17).

%--- Job 13
job(13).
operation(13,130,9,80).
operation(13,131,3,19).
operation(13,132,5,28).
operation(13,133,1,12).
operation(13,134,4,94).
operation(13,135,6,63).
operation(13,136,7,98).
operation(13,137,8,50).
operation(13,138,0,80).
operation(13,139,2,50).

%--- Job 14
job(14).
operation(14,140,2,50).
operation(14,141,1,41).
operation(14,142,4,61).
operation(14,143,8,79).
operation(14,144,5,14).
operation(14,145,9,72).
operation(14,146,7,18).
operation(14,147,3,55).
operation(14,148,6,37).
operation(14,149,0,75).

%--- Job 15
job(15).
operation(15,150,9,22).
operation(15,151,5,57).
operation(15,152,4,75).
operation(15,153,2,14).
operation(15,154,7,65).
operation(15,155,3,96).
operation(15,156,1,71).
operation(15,157,0,47).
operation(15,158,8,79).
operation(15,159,6,60).

%--- Job 16
job(16).
operation(16,160,3,32).
operation(16,161,2,69).
operation(16,162,4,44).
operation(16,163,1,31).
operation(16,164,9,51).
operation(16,165,0,33).
operation(16,166,6,34).
operation(16,167,5,58).
operation(16,168,7,47).
operation(16,169,8,58).

%--- Job 17
job(17).
operation(17,170,8,66).
operation(17,171,7,40).
operation(17,172,2,17).
operation(17,173,0,62).
operation(17,174,9,38).
operation(17,175,5,8).
operation(17,176,6,15).
operation(17,177,3,29).
operation(17,178,1,44).
operation(17,179,4,97).

%--- Job 18
job(18).
operation(18,180,3,50).
operation(18,181,2,58).
operation(18,182,6,21).
operation(18,183,4,63).
operation(18,184,7,57).
operation(18,185,8,32).
operation(18,186,5,20).
operation(18,187,9,87).
operation(18,188,0,57).
operation(18,189,1,39).

%--- Job 19
job(19).
operation(19,190,4,20).
operation(19,191,6,67).
operation(19,192,1,85).
operation(19,193,2,90).
operation(19,194,7,70).
operation(19,195,0,84).
operation(19,196,8,30).
operation(19,197,5,56).
operation(19,198,3,61).
operation(19,199,9,15).

%--- Job 20
job(20).
operation(20,200,6,29).
operation(20,201,0,82).
operation(20,202,4,18).
operation(20,203,3,38).
operation(20,204,7,21).
operation(20,205,8,50).
operation(20,206,1,23).
operation(20,207,5,84).
operation(20,208,2,45).
operation(20,209,9,41).

%--- Job 21
job(21).
operation(21,210,3,54).
operation(21,211,9,37).
operation(21,212,6,62).
operation(21,213,5,16).
operation(21,214,0,52).
operation(21,215,8,57).
operation(21,216,4,54).
operation(21,217,2,38).
operation(21,218,7,74).
operation(21,219,1,52).

%--- Job 22
job(22).
operation(22,220,4,79).
operation(22,221,1,61).
operation(22,222,8,11).
operation(22,223,0,81).
operation(22,224,7,89).
operation(22,225,6,89).
operation(22,226,5,57).
operation(22,227,3,68).
operation(22,228,9,81).
operation(22,229,2,30).

%--- Job 23
job(23).
operation(23,230,9,24).
operation(23,231,1,66).
operation(23,232,4,32).
operation(23,233,3,33).
operation(23,234,8,8).
operation(23,235,2,20).
operation(23,236,6,84).
operation(23,237,0,91).
operation(23,238,7,55).
operation(23,239,5,20).

%--- Job 24
job(24).
operation(24,240,3,54).
operation(24,241,2,64).
operation(24,242,6,83).
operation(24,243,9,40).
operation(24,244,7,8).
operation(24,245,0,7).
operation(24,246,4,19).
operation(24,247,5,56).
operation(24,248,1,39).
operation(24,249,8,7).

%--- Job 25
job(25).
operation(25,250,1,6).
operation(25,251,4,74).
operation(25,252,0,63).
operation(25,253,2,64).
operation(25,254,9,15).
operation(25,255,6,42).
operation(25,256,7,98).
operation(25,257,8,61).
operation(25,258,5,40).
operation(25,259,3,91).

%--- Job 26
job(26).
operation(26,260,1,80).
operation(26,261,3,75).
operation(26,262,0,26).
operation(26,263,2,87).
operation(26,264,9,22).
operation(26,265,7,39).
operation(26,266,8,24).
operation(26,267,4,75).
operation(26,268,6,44).
operation(26,269,5,6).

%--- Job 27
job(27).
operation(27,270,5,8).
operation(27,271,3,79).
operation(27,272,6,61).
operation(27,273,1,15).
operation(27,274,0,12).
operation(27,275,7,43).
operation(27,276,8,26).
operation(27,277,9,22).
operation(27,278,2,20).
operation(27,279,4,80).

%--- Job 28
job(28).
operation(28,280,1,36).
operation(28,281,0,63).
operation(28,282,7,10).
operation(28,283,4,22).
operation(28,284,3,96).
operation(28,285,5,40).
operation(28,286,9,5).
operation(28,287,8,18).
operation(28,288,6,33).
operation(28,289,2,62).

%--- Job 29
job(29).
operation(29,290,4,8).
operation(29,291,8,15).
operation(29,292,2,64).
operation(29,293,3,95).
operation(29,294,1,96).
operation(29,295,6,38).
operation(29,296,7,18).
operation(29,297,9,23).
operation(29,298,5,64).
operation(29,299,0,89).

