% ========= Metadata =========
   meta(name,la32).
   meta(num_jobs,30).
   meta(num_machines,10).
   meta(num_operations,300).
   meta(optimum,1850).
   meta(upper_bound,1850).
   meta(lower_bound,1850).
% ==========================


machine(0..10).

%--- Job 0
job(0).
operation(0,0,6,89).
operation(0,1,1,58).
operation(0,2,4,97).
operation(0,3,2,44).
operation(0,4,8,77).
operation(0,5,3,5).
operation(0,6,0,9).
operation(0,7,5,58).
operation(0,8,9,96).
operation(0,9,7,84).

%--- Job 1
job(1).
operation(1,10,7,31).
operation(1,11,2,81).
operation(1,12,9,73).
operation(1,13,4,15).
operation(1,14,1,87).
operation(1,15,5,39).
operation(1,16,8,57).
operation(1,17,0,77).
operation(1,18,3,85).
operation(1,19,6,21).

%--- Job 2
job(2).
operation(2,20,2,48).
operation(2,21,5,71).
operation(2,22,0,40).
operation(2,23,3,70).
operation(2,24,1,49).
operation(2,25,6,22).
operation(2,26,4,10).
operation(2,27,8,34).
operation(2,28,7,80).
operation(2,29,9,82).

%--- Job 3
job(3).
operation(3,30,4,11).
operation(3,31,6,72).
operation(3,32,7,62).
operation(3,33,0,55).
operation(3,34,2,17).
operation(3,35,5,75).
operation(3,36,3,7).
operation(3,37,1,91).
operation(3,38,9,35).
operation(3,39,8,47).

%--- Job 4
job(4).
operation(4,40,0,64).
operation(4,41,6,71).
operation(4,42,4,12).
operation(4,43,1,90).
operation(4,44,2,94).
operation(4,45,3,75).
operation(4,46,9,20).
operation(4,47,8,15).
operation(4,48,5,50).
operation(4,49,7,67).

%--- Job 5
job(5).
operation(5,50,2,29).
operation(5,51,6,93).
operation(5,52,3,68).
operation(5,53,5,93).
operation(5,54,1,57).
operation(5,55,8,77).
operation(5,56,0,52).
operation(5,57,9,7).
operation(5,58,4,58).
operation(5,59,7,70).

%--- Job 6
job(6).
operation(6,60,4,26).
operation(6,61,3,27).
operation(6,62,1,63).
operation(6,63,5,6).
operation(6,64,6,87).
operation(6,65,7,56).
operation(6,66,8,48).
operation(6,67,9,36).
operation(6,68,0,95).
operation(6,69,2,82).

%--- Job 7
job(7).
operation(7,70,1,8).
operation(7,71,7,76).
operation(7,72,3,76).
operation(7,73,4,30).
operation(7,74,6,84).
operation(7,75,9,78).
operation(7,76,8,41).
operation(7,77,0,36).
operation(7,78,2,36).
operation(7,79,5,15).

%--- Job 8
job(8).
operation(8,80,3,13).
operation(8,81,8,29).
operation(8,82,0,75).
operation(8,83,2,81).
operation(8,84,1,78).
operation(8,85,5,88).
operation(8,86,4,54).
operation(8,87,9,40).
operation(8,88,7,13).
operation(8,89,6,82).

%--- Job 9
job(9).
operation(9,90,0,52).
operation(9,91,2,6).
operation(9,92,3,6).
operation(9,93,5,82).
operation(9,94,6,64).
operation(9,95,9,88).
operation(9,96,8,54).
operation(9,97,4,54).
operation(9,98,7,32).
operation(9,99,1,26).

%--- Job 10
job(10).
operation(10,100,8,62).
operation(10,101,1,35).
operation(10,102,4,72).
operation(10,103,7,69).
operation(10,104,0,62).
operation(10,105,5,32).
operation(10,106,9,5).
operation(10,107,3,61).
operation(10,108,2,67).
operation(10,109,6,93).

%--- Job 11
job(11).
operation(11,110,2,78).
operation(11,111,3,11).
operation(11,112,7,82).
operation(11,113,4,7).
operation(11,114,1,72).
operation(11,115,8,64).
operation(11,116,9,90).
operation(11,117,0,85).
operation(11,118,5,88).
operation(11,119,6,63).

%--- Job 12
job(12).
operation(12,120,7,50).
operation(12,121,4,28).
operation(12,122,3,35).
operation(12,123,1,66).
operation(12,124,2,27).
operation(12,125,8,49).
operation(12,126,9,11).
operation(12,127,6,88).
operation(12,128,5,31).
operation(12,129,0,44).

%--- Job 13
job(13).
operation(13,130,4,62).
operation(13,131,5,39).
operation(13,132,0,76).
operation(13,133,2,14).
operation(13,134,6,56).
operation(13,135,3,97).
operation(13,136,1,7).
operation(13,137,7,69).
operation(13,138,9,66).
operation(13,139,8,47).

%--- Job 14
job(14).
operation(14,140,6,47).
operation(14,141,2,41).
operation(14,142,0,64).
operation(14,143,7,58).
operation(14,144,9,57).
operation(14,145,8,93).
operation(14,146,3,69).
operation(14,147,5,53).
operation(14,148,1,18).
operation(14,149,4,79).

%--- Job 15
job(15).
operation(15,150,7,76).
operation(15,151,9,81).
operation(15,152,0,76).
operation(15,153,6,61).
operation(15,154,4,77).
operation(15,155,8,26).
operation(15,156,2,74).
operation(15,157,5,22).
operation(15,158,1,58).
operation(15,159,3,78).

%--- Job 16
job(16).
operation(16,160,6,30).
operation(16,161,8,72).
operation(16,162,3,43).
operation(16,163,0,65).
operation(16,164,1,16).
operation(16,165,4,92).
operation(16,166,5,95).
operation(16,167,9,29).
operation(16,168,2,99).
operation(16,169,7,64).

%--- Job 17
job(17).
operation(17,170,1,35).
operation(17,171,3,74).
operation(17,172,5,16).
operation(17,173,4,85).
operation(17,174,0,7).
operation(17,175,2,81).
operation(17,176,6,86).
operation(17,177,8,61).
operation(17,178,9,35).
operation(17,179,7,34).

%--- Job 18
job(18).
operation(18,180,1,97).
operation(18,181,7,43).
operation(18,182,4,72).
operation(18,183,6,88).
operation(18,184,5,17).
operation(18,185,0,43).
operation(18,186,8,94).
operation(18,187,3,64).
operation(18,188,9,22).
operation(18,189,2,42).

%--- Job 19
job(19).
operation(19,190,7,99).
operation(19,191,2,84).
operation(19,192,8,99).
operation(19,193,5,98).
operation(19,194,1,20).
operation(19,195,6,31).
operation(19,196,3,74).
operation(19,197,0,92).
operation(19,198,9,23).
operation(19,199,4,89).

%--- Job 20
job(20).
operation(20,200,8,32).
operation(20,201,0,6).
operation(20,202,4,55).
operation(20,203,5,19).
operation(20,204,9,81).
operation(20,205,1,81).
operation(20,206,7,40).
operation(20,207,6,9).
operation(20,208,3,37).
operation(20,209,2,40).

%--- Job 21
job(21).
operation(21,210,6,15).
operation(21,211,2,70).
operation(21,212,8,25).
operation(21,213,1,46).
operation(21,214,9,65).
operation(21,215,4,64).
operation(21,216,7,21).
operation(21,217,0,77).
operation(21,218,5,65).
operation(21,219,3,55).

%--- Job 22
job(22).
operation(22,220,8,31).
operation(22,221,7,84).
operation(22,222,5,37).
operation(22,223,3,24).
operation(22,224,2,85).
operation(22,225,4,89).
operation(22,226,9,29).
operation(22,227,1,44).
operation(22,228,0,40).
operation(22,229,6,83).

%--- Job 23
job(23).
operation(23,230,4,80).
operation(23,231,0,8).
operation(23,232,9,41).
operation(23,233,5,59).
operation(23,234,7,56).
operation(23,235,3,38).
operation(23,236,2,30).
operation(23,237,8,97).
operation(23,238,6,77).
operation(23,239,1,80).

%--- Job 24
job(24).
operation(24,240,9,59).
operation(24,241,0,91).
operation(24,242,3,50).
operation(24,243,8,80).
operation(24,244,1,17).
operation(24,245,6,40).
operation(24,246,2,71).
operation(24,247,5,56).
operation(24,248,4,88).
operation(24,249,7,7).

%--- Job 25
job(25).
operation(25,250,7,36).
operation(25,251,3,58).
operation(25,252,4,54).
operation(25,253,5,77).
operation(25,254,2,8).
operation(25,255,6,9).
operation(25,256,0,45).
operation(25,257,9,10).
operation(25,258,1,29).
operation(25,259,8,96).

%--- Job 26
job(26).
operation(26,260,0,28).
operation(26,261,3,92).
operation(26,262,2,73).
operation(26,263,7,27).
operation(26,264,8,86).
operation(26,265,5,87).
operation(26,266,9,96).
operation(26,267,1,98).
operation(26,268,6,99).
operation(26,269,4,70).

%--- Job 27
job(27).
operation(27,270,9,32).
operation(27,271,1,95).
operation(27,272,3,85).
operation(27,273,6,81).
operation(27,274,2,41).
operation(27,275,8,39).
operation(27,276,7,92).
operation(27,277,0,59).
operation(27,278,5,56).
operation(27,279,4,52).

%--- Job 28
job(28).
operation(28,280,4,93).
operation(28,281,2,12).
operation(28,282,5,22).
operation(28,283,6,27).
operation(28,284,8,45).
operation(28,285,7,69).
operation(28,286,3,60).
operation(28,287,1,7).
operation(28,288,0,88).
operation(28,289,9,49).

%--- Job 29
job(29).
operation(29,290,2,61).
operation(29,291,5,26).
operation(29,292,9,71).
operation(29,293,8,44).
operation(29,294,0,21).
operation(29,295,6,82).
operation(29,296,3,68).
operation(29,297,7,33).
operation(29,298,1,84).
operation(29,299,4,99).

