% ========= Metadata =========
   meta(name,la33).
   meta(num_jobs,30).
   meta(num_machines,10).
   meta(num_operations,300).
   meta(optimum,1719).
   meta(upper_bound,1719).
   meta(lower_bound,1719).
% ==========================


machine(0..10).

%--- Job 0
job(0).
operation(0,0,2,38).
operation(0,1,4,75).
operation(0,2,9,12).
operation(0,3,5,97).
operation(0,4,0,76).
operation(0,5,1,29).
operation(0,6,8,14).
operation(0,7,6,66).
operation(0,8,7,44).
operation(0,9,3,12).

%--- Job 1
job(1).
operation(1,10,0,43).
operation(1,11,5,38).
operation(1,12,1,80).
operation(1,13,3,82).
operation(1,14,2,85).
operation(1,15,4,58).
operation(1,16,6,87).
operation(1,17,8,92).
operation(1,18,9,89).
operation(1,19,7,69).

%--- Job 2
job(2).
operation(2,20,6,48).
operation(2,21,4,8).
operation(2,22,8,66).
operation(2,23,7,7).
operation(2,24,2,14).
operation(2,25,3,41).
operation(2,26,5,61).
operation(2,27,0,43).
operation(2,28,1,84).
operation(2,29,9,5).

%--- Job 3
job(3).
operation(3,30,5,19).
operation(3,31,3,74).
operation(3,32,6,41).
operation(3,33,4,59).
operation(3,34,8,43).
operation(3,35,2,42).
operation(3,36,9,73).
operation(3,37,7,97).
operation(3,38,1,8).
operation(3,39,0,96).

%--- Job 4
job(4).
operation(4,40,3,75).
operation(4,41,5,5).
operation(4,42,2,70).
operation(4,43,8,42).
operation(4,44,7,23).
operation(4,45,6,55).
operation(4,46,1,48).
operation(4,47,9,38).
operation(4,48,4,37).
operation(4,49,0,7).

%--- Job 5
job(5).
operation(5,50,2,72).
operation(5,51,7,31).
operation(5,52,3,95).
operation(5,53,0,79).
operation(5,54,4,25).
operation(5,55,1,56).
operation(5,56,8,9).
operation(5,57,9,60).
operation(5,58,5,73).
operation(5,59,6,43).

%--- Job 6
job(6).
operation(6,60,9,31).
operation(6,61,3,78).
operation(6,62,6,16).
operation(6,63,4,94).
operation(6,64,7,86).
operation(6,65,5,21).
operation(6,66,0,97).
operation(6,67,8,53).
operation(6,68,1,7).
operation(6,69,2,64).

%--- Job 7
job(7).
operation(7,70,3,86).
operation(7,71,2,65).
operation(7,72,6,59).
operation(7,73,8,44).
operation(7,74,1,33).
operation(7,75,7,85).
operation(7,76,0,61).
operation(7,77,5,32).
operation(7,78,9,63).
operation(7,79,4,30).

%--- Job 8
job(8).
operation(8,80,4,11).
operation(8,81,5,61).
operation(8,82,9,84).
operation(8,83,3,16).
operation(8,84,7,90).
operation(8,85,1,30).
operation(8,86,0,60).
operation(8,87,8,93).
operation(8,88,2,44).
operation(8,89,6,45).

%--- Job 9
job(9).
operation(9,90,5,11).
operation(9,91,2,28).
operation(9,92,0,32).
operation(9,93,7,36).
operation(9,94,8,31).
operation(9,95,4,47).
operation(9,96,3,20).
operation(9,97,6,52).
operation(9,98,9,35).
operation(9,99,1,49).

%--- Job 10
job(10).
operation(10,100,5,17).
operation(10,101,3,34).
operation(10,102,6,49).
operation(10,103,1,84).
operation(10,104,0,85).
operation(10,105,8,20).
operation(10,106,7,74).
operation(10,107,9,68).
operation(10,108,4,10).
operation(10,109,2,77).

%--- Job 11
job(11).
operation(11,110,8,71).
operation(11,111,5,7).
operation(11,112,3,29).
operation(11,113,1,85).
operation(11,114,4,76).
operation(11,115,6,59).
operation(11,116,2,17).
operation(11,117,0,17).
operation(11,118,9,13).
operation(11,119,7,48).

%--- Job 12
job(12).
operation(12,120,1,39).
operation(12,121,9,16).
operation(12,122,4,39).
operation(12,123,6,87).
operation(12,124,7,11).
operation(12,125,3,32).
operation(12,126,2,15).
operation(12,127,0,19).
operation(12,128,5,64).
operation(12,129,8,43).

%--- Job 13
job(13).
operation(13,130,5,33).
operation(13,131,8,82).
operation(13,132,2,92).
operation(13,133,1,83).
operation(13,134,6,32).
operation(13,135,3,99).
operation(13,136,9,99).
operation(13,137,4,91).
operation(13,138,0,8).
operation(13,139,7,57).

%--- Job 14
job(14).
operation(14,140,7,7).
operation(14,141,0,48).
operation(14,142,9,62).
operation(14,143,4,88).
operation(14,144,6,21).
operation(14,145,5,39).
operation(14,146,8,27).
operation(14,147,3,91).
operation(14,148,1,38).
operation(14,149,2,69).

%--- Job 15
job(15).
operation(15,150,9,64).
operation(15,151,8,45).
operation(15,152,3,24).
operation(15,153,7,80).
operation(15,154,2,67).
operation(15,155,4,18).
operation(15,156,6,38).
operation(15,157,0,88).
operation(15,158,5,80).
operation(15,159,1,44).

%--- Job 16
job(16).
operation(16,160,2,15).
operation(16,161,3,72).
operation(16,162,4,40).
operation(16,163,7,21).
operation(16,164,8,52).
operation(16,165,0,51).
operation(16,166,9,59).
operation(16,167,1,24).
operation(16,168,6,47).
operation(16,169,5,43).

%--- Job 17
job(17).
operation(17,170,4,77).
operation(17,171,7,43).
operation(17,172,1,40).
operation(17,173,2,31).
operation(17,174,8,76).
operation(17,175,6,20).
operation(17,176,5,88).
operation(17,177,3,70).
operation(17,178,9,5).
operation(17,179,0,32).

%--- Job 18
job(18).
operation(18,180,2,14).
operation(18,181,7,58).
operation(18,182,9,85).
operation(18,183,5,64).
operation(18,184,1,26).
operation(18,185,6,94).
operation(18,186,0,32).
operation(18,187,3,49).
operation(18,188,8,80).
operation(18,189,4,47).

%--- Job 19
job(19).
operation(19,190,9,23).
operation(19,191,1,11).
operation(19,192,8,34).
operation(19,193,4,75).
operation(19,194,7,79).
operation(19,195,3,26).
operation(19,196,2,96).
operation(19,197,0,5).
operation(19,198,6,9).
operation(19,199,5,59).

%--- Job 20
job(20).
operation(20,200,0,75).
operation(20,201,2,20).
operation(20,202,8,10).
operation(20,203,3,66).
operation(20,204,6,43).
operation(20,205,7,37).
operation(20,206,1,9).
operation(20,207,9,83).
operation(20,208,4,68).
operation(20,209,5,52).

%--- Job 21
job(21).
operation(21,210,8,54).
operation(21,211,1,26).
operation(21,212,4,79).
operation(21,213,7,88).
operation(21,214,6,84).
operation(21,215,0,6).
operation(21,216,2,54).
operation(21,217,9,59).
operation(21,218,3,28).
operation(21,219,5,42).

%--- Job 22
job(22).
operation(22,220,4,56).
operation(22,221,9,29).
operation(22,222,3,36).
operation(22,223,0,40).
operation(22,224,6,86).
operation(22,225,8,68).
operation(22,226,2,69).
operation(22,227,7,23).
operation(22,228,5,62).
operation(22,229,1,16).

%--- Job 23
job(23).
operation(23,230,7,53).
operation(23,231,1,5).
operation(23,232,6,17).
operation(23,233,9,59).
operation(23,234,2,59).
operation(23,235,8,78).
operation(23,236,3,64).
operation(23,237,0,82).
operation(23,238,4,13).
operation(23,239,5,12).

%--- Job 24
job(24).
operation(24,240,9,7).
operation(24,241,6,62).
operation(24,242,7,90).
operation(24,243,5,83).
operation(24,244,1,85).
operation(24,245,3,69).
operation(24,246,0,16).
operation(24,247,4,81).
operation(24,248,2,58).
operation(24,249,8,66).

%--- Job 25
job(25).
operation(25,250,7,24).
operation(25,251,2,65).
operation(25,252,1,69).
operation(25,253,5,42).
operation(25,254,9,82).
operation(25,255,6,82).
operation(25,256,0,83).
operation(25,257,3,46).
operation(25,258,8,72).
operation(25,259,4,33).

%--- Job 26
job(26).
operation(26,260,1,10).
operation(26,261,8,27).
operation(26,262,7,43).
operation(26,263,5,20).
operation(26,264,4,71).
operation(26,265,9,65).
operation(26,266,2,73).
operation(26,267,6,99).
operation(26,268,0,24).
operation(26,269,3,64).

%--- Job 27
job(27).
operation(27,270,9,35).
operation(27,271,3,92).
operation(27,272,0,38).
operation(27,273,5,35).
operation(27,274,7,30).
operation(27,275,8,45).
operation(27,276,2,8).
operation(27,277,4,82).
operation(27,278,1,34).
operation(27,279,6,21).

%--- Job 28
job(28).
operation(28,280,5,23).
operation(28,281,7,84).
operation(28,282,9,7).
operation(28,283,4,85).
operation(28,284,8,60).
operation(28,285,1,15).
operation(28,286,2,52).
operation(28,287,6,94).
operation(28,288,3,83).
operation(28,289,0,6).

%--- Job 29
job(29).
operation(29,290,2,70).
operation(29,291,6,29).
operation(29,292,8,27).
operation(29,293,9,80).
operation(29,294,4,6).
operation(29,295,7,39).
operation(29,296,1,79).
operation(29,297,0,28).
operation(29,298,3,66).
operation(29,299,5,66).

