% ========= Metadata =========
   meta(name,la36).
   meta(num_jobs,15).
   meta(num_machines,15).
   meta(num_operations,225).
   meta(optimum,1268).
   meta(upper_bound,1268).
   meta(lower_bound,1268).
% ==========================


machine(0..15).

%--- Job 0
job(0).
operation(0,0,4,21).
operation(0,1,3,55).
operation(0,2,6,71).
operation(0,3,14,98).
operation(0,4,10,12).
operation(0,5,2,34).
operation(0,6,9,16).
operation(0,7,1,21).
operation(0,8,0,53).
operation(0,9,7,26).
operation(0,10,8,52).
operation(0,11,5,95).
operation(0,12,12,31).
operation(0,13,11,42).
operation(0,14,13,39).

%--- Job 1
job(1).
operation(1,15,11,54).
operation(1,16,4,83).
operation(1,17,1,77).
operation(1,18,7,64).
operation(1,19,8,34).
operation(1,20,14,79).
operation(1,21,12,43).
operation(1,22,0,55).
operation(1,23,3,77).
operation(1,24,6,19).
operation(1,25,9,37).
operation(1,26,5,79).
operation(1,27,10,92).
operation(1,28,13,62).
operation(1,29,2,66).

%--- Job 2
job(2).
operation(2,30,9,83).
operation(2,31,5,77).
operation(2,32,2,87).
operation(2,33,7,38).
operation(2,34,4,60).
operation(2,35,12,98).
operation(2,36,0,93).
operation(2,37,13,17).
operation(2,38,6,41).
operation(2,39,10,44).
operation(2,40,3,69).
operation(2,41,11,49).
operation(2,42,8,24).
operation(2,43,1,87).
operation(2,44,14,25).

%--- Job 3
job(3).
operation(3,45,5,77).
operation(3,46,0,96).
operation(3,47,9,28).
operation(3,48,6,7).
operation(3,49,4,95).
operation(3,50,13,35).
operation(3,51,7,35).
operation(3,52,8,76).
operation(3,53,11,9).
operation(3,54,12,95).
operation(3,55,2,43).
operation(3,56,1,75).
operation(3,57,10,61).
operation(3,58,14,10).
operation(3,59,3,79).

%--- Job 4
job(4).
operation(4,60,10,87).
operation(4,61,4,28).
operation(4,62,8,50).
operation(4,63,2,59).
operation(4,64,0,46).
operation(4,65,11,45).
operation(4,66,14,9).
operation(4,67,9,43).
operation(4,68,6,52).
operation(4,69,7,27).
operation(4,70,1,91).
operation(4,71,13,41).
operation(4,72,3,16).
operation(4,73,5,59).
operation(4,74,12,39).

%--- Job 5
job(5).
operation(5,75,0,20).
operation(5,76,2,71).
operation(5,77,4,78).
operation(5,78,13,66).
operation(5,79,3,14).
operation(5,80,12,8).
operation(5,81,14,42).
operation(5,82,6,28).
operation(5,83,1,54).
operation(5,84,9,33).
operation(5,85,11,89).
operation(5,86,8,26).
operation(5,87,7,37).
operation(5,88,10,33).
operation(5,89,5,43).

%--- Job 6
job(6).
operation(6,90,8,69).
operation(6,91,4,96).
operation(6,92,12,17).
operation(6,93,0,69).
operation(6,94,7,45).
operation(6,95,11,31).
operation(6,96,6,78).
operation(6,97,10,20).
operation(6,98,3,27).
operation(6,99,13,87).
operation(6,100,1,74).
operation(6,101,5,84).
operation(6,102,14,76).
operation(6,103,2,94).
operation(6,104,9,81).

%--- Job 7
job(7).
operation(7,105,4,58).
operation(7,106,13,90).
operation(7,107,11,76).
operation(7,108,3,81).
operation(7,109,7,23).
operation(7,110,9,28).
operation(7,111,1,18).
operation(7,112,2,32).
operation(7,113,12,86).
operation(7,114,8,99).
operation(7,115,14,97).
operation(7,116,0,24).
operation(7,117,10,45).
operation(7,118,6,72).
operation(7,119,5,25).

%--- Job 8
job(8).
operation(8,120,5,27).
operation(8,121,1,46).
operation(8,122,6,67).
operation(8,123,8,27).
operation(8,124,13,19).
operation(8,125,10,80).
operation(8,126,2,17).
operation(8,127,3,48).
operation(8,128,7,62).
operation(8,129,11,12).
operation(8,130,14,28).
operation(8,131,4,98).
operation(8,132,0,42).
operation(8,133,9,48).
operation(8,134,12,50).

%--- Job 9
job(9).
operation(9,135,11,37).
operation(9,136,5,80).
operation(9,137,4,75).
operation(9,138,8,55).
operation(9,139,7,50).
operation(9,140,0,94).
operation(9,141,9,14).
operation(9,142,6,41).
operation(9,143,14,72).
operation(9,144,3,50).
operation(9,145,10,61).
operation(9,146,13,79).
operation(9,147,2,98).
operation(9,148,12,18).
operation(9,149,1,63).

%--- Job 10
job(10).
operation(10,150,7,65).
operation(10,151,3,96).
operation(10,152,0,47).
operation(10,153,4,75).
operation(10,154,12,69).
operation(10,155,14,58).
operation(10,156,10,33).
operation(10,157,1,71).
operation(10,158,9,22).
operation(10,159,13,32).
operation(10,160,5,57).
operation(10,161,8,79).
operation(10,162,2,14).
operation(10,163,11,31).
operation(10,164,6,60).

%--- Job 11
job(11).
operation(11,165,1,34).
operation(11,166,2,47).
operation(11,167,3,58).
operation(11,168,5,51).
operation(11,169,4,62).
operation(11,170,6,44).
operation(11,171,9,8).
operation(11,172,7,17).
operation(11,173,10,97).
operation(11,174,8,29).
operation(11,175,11,15).
operation(11,176,13,66).
operation(11,177,12,40).
operation(11,178,0,44).
operation(11,179,14,38).

%--- Job 12
job(12).
operation(12,180,3,50).
operation(12,181,7,57).
operation(12,182,13,61).
operation(12,183,5,20).
operation(12,184,11,85).
operation(12,185,12,90).
operation(12,186,2,58).
operation(12,187,4,63).
operation(12,188,10,84).
operation(12,189,1,39).
operation(12,190,9,87).
operation(12,191,6,21).
operation(12,192,14,56).
operation(12,193,8,32).
operation(12,194,0,57).

%--- Job 13
job(13).
operation(13,195,9,84).
operation(13,196,7,45).
operation(13,197,5,15).
operation(13,198,14,41).
operation(13,199,10,18).
operation(13,200,4,82).
operation(13,201,11,29).
operation(13,202,2,70).
operation(13,203,1,67).
operation(13,204,3,30).
operation(13,205,13,50).
operation(13,206,6,23).
operation(13,207,0,20).
operation(13,208,12,21).
operation(13,209,8,38).

%--- Job 14
job(14).
operation(14,210,9,37).
operation(14,211,10,81).
operation(14,212,11,61).
operation(14,213,14,57).
operation(14,214,8,57).
operation(14,215,0,52).
operation(14,216,7,74).
operation(14,217,6,62).
operation(14,218,12,30).
operation(14,219,1,52).
operation(14,220,2,38).
operation(14,221,13,68).
operation(14,222,4,54).
operation(14,223,3,54).
operation(14,224,5,16).

