% ========= Metadata =========
   meta(name,la37).
   meta(num_jobs,15).
   meta(num_machines,15).
   meta(num_operations,225).
   meta(optimum,1397).
   meta(upper_bound,1397).
   meta(lower_bound,1397).
% ==========================


machine(0..15).

%--- Job 0
job(0).
operation(0,0,5,19).
operation(0,1,6,64).
operation(0,2,11,73).
operation(0,3,9,13).
operation(0,4,2,84).
operation(0,5,14,88).
operation(0,6,3,85).
operation(0,7,10,41).
operation(0,8,12,53).
operation(0,9,13,80).
operation(0,10,1,66).
operation(0,11,7,46).
operation(0,12,8,59).
operation(0,13,4,25).
operation(0,14,0,62).

%--- Job 1
job(1).
operation(1,15,1,67).
operation(1,16,3,74).
operation(1,17,7,41).
operation(1,18,2,57).
operation(1,19,14,52).
operation(1,20,0,14).
operation(1,21,9,64).
operation(1,22,8,84).
operation(1,23,6,78).
operation(1,24,5,47).
operation(1,25,13,28).
operation(1,26,4,84).
operation(1,27,10,63).
operation(1,28,12,26).
operation(1,29,11,46).

%--- Job 2
job(2).
operation(2,30,6,97).
operation(2,31,8,95).
operation(2,32,0,64).
operation(2,33,9,38).
operation(2,34,10,59).
operation(2,35,12,95).
operation(2,36,2,17).
operation(2,37,11,65).
operation(2,38,13,93).
operation(2,39,3,10).
operation(2,40,5,73).
operation(2,41,1,11).
operation(2,42,4,85).
operation(2,43,14,46).
operation(2,44,7,67).

%--- Job 3
job(3).
operation(3,45,10,23).
operation(3,46,12,49).
operation(3,47,3,32).
operation(3,48,4,66).
operation(3,49,2,43).
operation(3,50,0,60).
operation(3,51,8,41).
operation(3,52,7,61).
operation(3,53,13,70).
operation(3,54,9,49).
operation(3,55,11,17).
operation(3,56,6,90).
operation(3,57,1,85).
operation(3,58,14,99).
operation(3,59,5,85).

%--- Job 4
job(4).
operation(4,60,9,98).
operation(4,61,8,57).
operation(4,62,3,73).
operation(4,63,6,9).
operation(4,64,0,73).
operation(4,65,7,7).
operation(4,66,1,98).
operation(4,67,4,13).
operation(4,68,13,41).
operation(4,69,5,40).
operation(4,70,11,85).
operation(4,71,10,37).
operation(4,72,2,68).
operation(4,73,14,79).
operation(4,74,12,17).

%--- Job 5
job(5).
operation(5,75,11,66).
operation(5,76,7,53).
operation(5,77,5,86).
operation(5,78,6,40).
operation(5,79,0,14).
operation(5,80,3,19).
operation(5,81,13,96).
operation(5,82,4,95).
operation(5,83,2,54).
operation(5,84,10,84).
operation(5,85,12,97).
operation(5,86,8,16).
operation(5,87,14,52).
operation(5,88,1,76).
operation(5,89,9,87).

%--- Job 6
job(6).
operation(6,90,4,77).
operation(6,91,2,55).
operation(6,92,9,42).
operation(6,93,5,74).
operation(6,94,14,91).
operation(6,95,13,33).
operation(6,96,10,16).
operation(6,97,12,54).
operation(6,98,0,18).
operation(6,99,3,87).
operation(6,100,7,60).
operation(6,101,8,13).
operation(6,102,6,33).
operation(6,103,1,33).
operation(6,104,11,61).

%--- Job 7
job(7).
operation(7,105,6,41).
operation(7,106,5,39).
operation(7,107,11,82).
operation(7,108,9,64).
operation(7,109,14,47).
operation(7,110,10,28).
operation(7,111,7,78).
operation(7,112,13,49).
operation(7,113,1,79).
operation(7,114,4,58).
operation(7,115,2,92).
operation(7,116,3,79).
operation(7,117,12,6).
operation(7,118,0,69).
operation(7,119,8,76).

%--- Job 8
job(8).
operation(8,120,11,21).
operation(8,121,5,42).
operation(8,122,9,91).
operation(8,123,2,28).
operation(8,124,0,52).
operation(8,125,6,88).
operation(8,126,12,76).
operation(8,127,13,86).
operation(8,128,10,23).
operation(8,129,1,35).
operation(8,130,7,52).
operation(8,131,4,91).
operation(8,132,3,47).
operation(8,133,14,82).
operation(8,134,8,24).

%--- Job 9
job(9).
operation(9,135,11,42).
operation(9,136,1,93).
operation(9,137,3,95).
operation(9,138,13,45).
operation(9,139,9,28).
operation(9,140,14,77).
operation(9,141,0,84).
operation(9,142,10,8).
operation(9,143,7,45).
operation(9,144,4,70).
operation(9,145,5,37).
operation(9,146,6,86).
operation(9,147,12,64).
operation(9,148,8,67).
operation(9,149,2,38).

%--- Job 10
job(10).
operation(10,150,4,97).
operation(10,151,12,81).
operation(10,152,1,58).
operation(10,153,7,84).
operation(10,154,5,58).
operation(10,155,0,9).
operation(10,156,11,87).
operation(10,157,3,5).
operation(10,158,2,44).
operation(10,159,13,85).
operation(10,160,6,89).
operation(10,161,10,77).
operation(10,162,9,96).
operation(10,163,14,39).
operation(10,164,8,77).

%--- Job 11
job(11).
operation(11,165,12,80).
operation(11,166,1,21).
operation(11,167,10,10).
operation(11,168,5,73).
operation(11,169,8,70).
operation(11,170,6,49).
operation(11,171,2,31).
operation(11,172,13,34).
operation(11,173,4,40).
operation(11,174,11,22).
operation(11,175,0,15).
operation(11,176,14,82).
operation(11,177,3,57).
operation(11,178,9,71).
operation(11,179,7,48).

%--- Job 12
job(12).
operation(12,180,2,17).
operation(12,181,7,62).
operation(12,182,5,75).
operation(12,183,9,35).
operation(12,184,1,91).
operation(12,185,14,50).
operation(12,186,3,7).
operation(12,187,10,64).
operation(12,188,13,75).
operation(12,189,12,94).
operation(12,190,0,55).
operation(12,191,6,72).
operation(12,192,8,47).
operation(12,193,4,11).
operation(12,194,11,90).

%--- Job 13
job(13).
operation(13,195,11,93).
operation(13,196,6,57).
operation(13,197,1,71).
operation(13,198,12,70).
operation(13,199,9,93).
operation(13,200,5,20).
operation(13,201,3,15).
operation(13,202,13,77).
operation(13,203,10,58).
operation(13,204,0,12).
operation(13,205,2,67).
operation(13,206,8,68).
operation(13,207,14,7).
operation(13,208,7,29).
operation(13,209,4,52).

%--- Job 14
job(14).
operation(14,210,13,76).
operation(14,211,3,27).
operation(14,212,4,26).
operation(14,213,9,36).
operation(14,214,11,8).
operation(14,215,10,36).
operation(14,216,0,95).
operation(14,217,8,48).
operation(14,218,2,82).
operation(14,219,6,87).
operation(14,220,5,6).
operation(14,221,1,63).
operation(14,222,7,56).
operation(14,223,12,36).
operation(14,224,14,15).

