% ========= Metadata =========
   meta(name,la38).
   meta(num_jobs,15).
   meta(num_machines,15).
   meta(num_operations,225).
   meta(optimum,1196).
   meta(upper_bound,1196).
   meta(lower_bound,1196).
% ==========================


machine(0..15).

%--- Job 0
job(0).
operation(0,0,1,26).
operation(0,1,12,67).
operation(0,2,0,72).
operation(0,3,6,74).
operation(0,4,14,13).
operation(0,5,8,43).
operation(0,6,4,30).
operation(0,7,3,19).
operation(0,8,10,23).
operation(0,9,11,85).
operation(0,10,5,98).
operation(0,11,13,43).
operation(0,12,2,38).
operation(0,13,7,8).
operation(0,14,9,75).

%--- Job 1
job(1).
operation(1,15,14,42).
operation(1,16,0,39).
operation(1,17,4,55).
operation(1,18,12,46).
operation(1,19,1,19).
operation(1,20,8,93).
operation(1,21,9,80).
operation(1,22,5,26).
operation(1,23,10,7).
operation(1,24,6,50).
operation(1,25,11,57).
operation(1,26,3,73).
operation(1,27,2,9).
operation(1,28,7,61).
operation(1,29,13,72).

%--- Job 2
job(2).
operation(2,30,3,96).
operation(2,31,4,99).
operation(2,32,12,34).
operation(2,33,6,60).
operation(2,34,7,43).
operation(2,35,14,7).
operation(2,36,13,12).
operation(2,37,8,11).
operation(2,38,11,70).
operation(2,39,10,43).
operation(2,40,0,91).
operation(2,41,1,68).
operation(2,42,9,11).
operation(2,43,5,68).
operation(2,44,2,72).

%--- Job 3
job(3).
operation(3,45,14,63).
operation(3,46,11,45).
operation(3,47,4,49).
operation(3,48,1,74).
operation(3,49,8,27).
operation(3,50,0,30).
operation(3,51,9,72).
operation(3,52,7,9).
operation(3,53,12,99).
operation(3,54,13,60).
operation(3,55,5,69).
operation(3,56,6,69).
operation(3,57,2,84).
operation(3,58,3,40).
operation(3,59,10,59).

%--- Job 4
job(4).
operation(4,60,2,91).
operation(4,61,0,75).
operation(4,62,9,98).
operation(4,63,3,17).
operation(4,64,10,72).
operation(4,65,13,31).
operation(4,66,11,9).
operation(4,67,14,98).
operation(4,68,7,50).
operation(4,69,5,37).
operation(4,70,4,8).
operation(4,71,8,65).
operation(4,72,1,90).
operation(4,73,12,91).
operation(4,74,6,71).

%--- Job 5
job(5).
operation(5,75,11,35).
operation(5,76,6,80).
operation(5,77,4,39).
operation(5,78,3,62).
operation(5,79,14,74).
operation(5,80,5,72).
operation(5,81,10,35).
operation(5,82,9,25).
operation(5,83,1,49).
operation(5,84,8,52).
operation(5,85,7,63).
operation(5,86,2,90).
operation(5,87,13,21).
operation(5,88,12,47).
operation(5,89,0,38).

%--- Job 6
job(6).
operation(6,90,14,19).
operation(6,91,7,57).
operation(6,92,10,24).
operation(6,93,13,91).
operation(6,94,3,50).
operation(6,95,0,5).
operation(6,96,11,49).
operation(6,97,12,18).
operation(6,98,9,58).
operation(6,99,5,24).
operation(6,100,8,52).
operation(6,101,1,88).
operation(6,102,2,68).
operation(6,103,6,20).
operation(6,104,4,53).

%--- Job 7
job(7).
operation(7,105,7,77).
operation(7,106,14,72).
operation(7,107,5,35).
operation(7,108,11,90).
operation(7,109,4,68).
operation(7,110,6,18).
operation(7,111,3,9).
operation(7,112,0,33).
operation(7,113,8,60).
operation(7,114,10,18).
operation(7,115,12,10).
operation(7,116,13,60).
operation(7,117,1,38).
operation(7,118,2,99).
operation(7,119,9,15).

%--- Job 8
job(8).
operation(8,120,13,6).
operation(8,121,8,86).
operation(8,122,2,40).
operation(8,123,9,79).
operation(8,124,12,92).
operation(8,125,11,23).
operation(8,126,5,89).
operation(8,127,10,95).
operation(8,128,6,91).
operation(8,129,7,72).
operation(8,130,0,80).
operation(8,131,1,60).
operation(8,132,3,56).
operation(8,133,4,51).
operation(8,134,14,23).

%--- Job 9
job(9).
operation(9,135,1,46).
operation(9,136,6,28).
operation(9,137,5,34).
operation(9,138,11,77).
operation(9,139,4,47).
operation(9,140,0,10).
operation(9,141,14,49).
operation(9,142,8,77).
operation(9,143,10,48).
operation(9,144,7,24).
operation(9,145,12,8).
operation(9,146,2,72).
operation(9,147,13,55).
operation(9,148,9,29).
operation(9,149,3,40).

%--- Job 10
job(10).
operation(10,150,10,22).
operation(10,151,4,89).
operation(10,152,12,79).
operation(10,153,0,7).
operation(10,154,9,15).
operation(10,155,1,6).
operation(10,156,11,30).
operation(10,157,6,38).
operation(10,158,5,11).
operation(10,159,8,52).
operation(10,160,3,20).
operation(10,161,7,5).
operation(10,162,14,9).
operation(10,163,2,20).
operation(10,164,13,28).

%--- Job 11
job(11).
operation(11,165,5,73).
operation(11,166,14,56).
operation(11,167,2,37).
operation(11,168,3,22).
operation(11,169,13,25).
operation(11,170,6,58).
operation(11,171,1,8).
operation(11,172,7,93).
operation(11,173,4,88).
operation(11,174,8,17).
operation(11,175,12,9).
operation(11,176,11,69).
operation(11,177,10,71).
operation(11,178,9,85).
operation(11,179,0,55).

%--- Job 12
job(12).
operation(12,180,9,85).
operation(12,181,14,58).
operation(12,182,3,46).
operation(12,183,8,64).
operation(12,184,2,49).
operation(12,185,6,37).
operation(12,186,1,33).
operation(12,187,4,30).
operation(12,188,5,26).
operation(12,189,0,20).
operation(12,190,13,74).
operation(12,191,10,77).
operation(12,192,12,99).
operation(12,193,11,56).
operation(12,194,7,21).

%--- Job 13
job(13).
operation(13,195,10,17).
operation(13,196,3,24).
operation(13,197,4,89).
operation(13,198,5,15).
operation(13,199,11,60).
operation(13,200,1,42).
operation(13,201,8,98).
operation(13,202,2,64).
operation(13,203,13,92).
operation(13,204,0,63).
operation(13,205,7,52).
operation(13,206,12,54).
operation(13,207,6,75).
operation(13,208,14,23).
operation(13,209,9,38).

%--- Job 14
job(14).
operation(14,210,3,8).
operation(14,211,5,17).
operation(14,212,11,56).
operation(14,213,7,93).
operation(14,214,14,26).
operation(14,215,9,62).
operation(14,216,6,7).
operation(14,217,10,88).
operation(14,218,0,97).
operation(14,219,1,7).
operation(14,220,2,43).
operation(14,221,8,29).
operation(14,222,13,35).
operation(14,223,12,87).
operation(14,224,4,57).

