% ========= Metadata =========
   meta(name,la39).
   meta(num_jobs,15).
   meta(num_machines,15).
   meta(num_operations,225).
   meta(optimum,1233).
   meta(upper_bound,1233).
   meta(lower_bound,1233).
% ==========================


machine(0..15).

%--- Job 0
job(0).
operation(0,0,10,51).
operation(0,1,14,43).
operation(0,2,7,80).
operation(0,3,4,18).
operation(0,4,6,38).
operation(0,5,3,24).
operation(0,6,2,67).
operation(0,7,12,15).
operation(0,8,11,24).
operation(0,9,13,72).
operation(0,10,8,45).
operation(0,11,5,80).
operation(0,12,9,64).
operation(0,13,1,44).
operation(0,14,0,88).

%--- Job 1
job(1).
operation(1,15,6,40).
operation(1,16,9,88).
operation(1,17,10,77).
operation(1,18,5,59).
operation(1,19,11,20).
operation(1,20,3,52).
operation(1,21,8,70).
operation(1,22,0,40).
operation(1,23,4,32).
operation(1,24,13,76).
operation(1,25,12,43).
operation(1,26,7,31).
operation(1,27,2,21).
operation(1,28,14,5).
operation(1,29,1,47).

%--- Job 2
job(2).
operation(2,30,0,32).
operation(2,31,3,49).
operation(2,32,10,5).
operation(2,33,5,64).
operation(2,34,7,58).
operation(2,35,8,80).
operation(2,36,6,94).
operation(2,37,11,11).
operation(2,38,1,26).
operation(2,39,13,26).
operation(2,40,14,59).
operation(2,41,9,85).
operation(2,42,4,47).
operation(2,43,12,96).
operation(2,44,2,14).

%--- Job 3
job(3).
operation(3,45,5,23).
operation(3,46,6,9).
operation(3,47,0,75).
operation(3,48,12,37).
operation(3,49,11,43).
operation(3,50,2,79).
operation(3,51,4,75).
operation(3,52,3,34).
operation(3,53,7,20).
operation(3,54,13,10).
operation(3,55,14,83).
operation(3,56,10,68).
operation(3,57,9,52).
operation(3,58,8,66).
operation(3,59,1,9).

%--- Job 4
job(4).
operation(4,60,12,69).
operation(4,61,9,59).
operation(4,62,3,28).
operation(4,63,14,62).
operation(4,64,13,36).
operation(4,65,1,26).
operation(4,66,6,84).
operation(4,67,11,16).
operation(4,68,8,54).
operation(4,69,5,42).
operation(4,70,2,54).
operation(4,71,0,6).
operation(4,72,10,40).
operation(4,73,7,88).
operation(4,74,4,79).

%--- Job 5
job(5).
operation(5,75,13,78).
operation(5,76,12,53).
operation(5,77,11,17).
operation(5,78,5,29).
operation(5,79,4,82).
operation(5,80,2,23).
operation(5,81,9,12).
operation(5,82,8,64).
operation(5,83,1,86).
operation(5,84,7,59).
operation(5,85,6,5).
operation(5,86,3,68).
operation(5,87,14,59).
operation(5,88,10,13).
operation(5,89,0,56).

%--- Job 6
job(6).
operation(6,90,10,83).
operation(6,91,13,46).
operation(6,92,9,7).
operation(6,93,12,65).
operation(6,94,11,69).
operation(6,95,6,62).
operation(6,96,0,16).
operation(6,97,2,58).
operation(6,98,8,66).
operation(6,99,5,83).
operation(6,100,7,90).
operation(6,101,14,42).
operation(6,102,4,81).
operation(6,103,3,69).
operation(6,104,1,85).

%--- Job 7
job(7).
operation(7,105,7,73).
operation(7,106,10,71).
operation(7,107,8,64).
operation(7,108,6,10).
operation(7,109,9,20).
operation(7,110,11,99).
operation(7,111,4,24).
operation(7,112,14,65).
operation(7,113,5,82).
operation(7,114,3,72).
operation(7,115,12,43).
operation(7,116,1,82).
operation(7,117,13,27).
operation(7,118,2,24).
operation(7,119,0,33).

%--- Job 8
job(8).
operation(8,120,4,82).
operation(8,121,1,34).
operation(8,122,3,92).
operation(8,123,2,8).
operation(8,124,0,38).
operation(8,125,8,45).
operation(8,126,6,21).
operation(8,127,5,35).
operation(8,128,12,52).
operation(8,129,9,35).
operation(8,130,11,15).
operation(8,131,14,23).
operation(8,132,10,6).
operation(8,133,13,83).
operation(8,134,7,30).

%--- Job 9
job(9).
operation(9,135,2,84).
operation(9,136,5,7).
operation(9,137,9,66).
operation(9,138,10,6).
operation(9,139,4,28).
operation(9,140,13,27).
operation(9,141,6,79).
operation(9,142,7,70).
operation(9,143,0,85).
operation(9,144,1,94).
operation(9,145,3,60).
operation(9,146,14,80).
operation(9,147,12,39).
operation(9,148,8,66).
operation(9,149,11,29).

%--- Job 10
job(10).
operation(10,150,3,44).
operation(10,151,6,58).
operation(10,152,13,14).
operation(10,153,8,65).
operation(10,154,1,72).
operation(10,155,5,14).
operation(10,156,12,52).
operation(10,157,4,21).
operation(10,158,9,25).
operation(10,159,0,5).
operation(10,160,11,51).
operation(10,161,7,61).
operation(10,162,14,55).
operation(10,163,10,42).
operation(10,164,2,36).

%--- Job 11
job(11).
operation(11,165,14,43).
operation(11,166,10,72).
operation(11,167,5,78).
operation(11,168,11,12).
operation(11,169,12,17).
operation(11,170,0,46).
operation(11,171,9,27).
operation(11,172,6,51).
operation(11,173,2,63).
operation(11,174,1,79).
operation(11,175,8,79).
operation(11,176,7,91).
operation(11,177,4,49).
operation(11,178,13,26).
operation(11,179,3,93).

%--- Job 12
job(12).
operation(12,180,7,49).
operation(12,181,0,49).
operation(12,182,4,71).
operation(12,183,5,78).
operation(12,184,9,44).
operation(12,185,10,41).
operation(12,186,12,91).
operation(12,187,13,84).
operation(12,188,8,91).
operation(12,189,6,21).
operation(12,190,11,47).
operation(12,191,14,28).
operation(12,192,3,61).
operation(12,193,2,70).
operation(12,194,1,93).

%--- Job 13
job(13).
operation(13,195,3,25).
operation(13,196,4,85).
operation(13,197,0,66).
operation(13,198,2,45).
operation(13,199,10,95).
operation(13,200,12,21).
operation(13,201,8,84).
operation(13,202,5,24).
operation(13,203,9,53).
operation(13,204,7,67).
operation(13,205,6,91).
operation(13,206,11,11).
operation(13,207,13,32).
operation(13,208,1,30).
operation(13,209,14,89).

%--- Job 14
job(14).
operation(14,210,3,92).
operation(14,211,7,93).
operation(14,212,0,99).
operation(14,213,1,40).
operation(14,214,10,37).
operation(14,215,12,69).
operation(14,216,5,66).
operation(14,217,6,57).
operation(14,218,14,22).
operation(14,219,9,44).
operation(14,220,8,73).
operation(14,221,13,97).
operation(14,222,11,18).
operation(14,223,2,69).
operation(14,224,4,41).

