% ========= Metadata =========
   meta(name,la40).
   meta(num_jobs,15).
   meta(num_machines,15).
   meta(num_operations,225).
   meta(optimum,1222).
   meta(upper_bound,1222).
   meta(lower_bound,1222).
% ==========================


machine(0..15).

%--- Job 0
job(0).
operation(0,0,9,65).
operation(0,1,10,28).
operation(0,2,4,74).
operation(0,3,12,33).
operation(0,4,2,51).
operation(0,5,14,75).
operation(0,6,5,73).
operation(0,7,8,32).
operation(0,8,6,13).
operation(0,9,3,81).
operation(0,10,1,35).
operation(0,11,7,59).
operation(0,12,13,38).
operation(0,13,11,55).
operation(0,14,0,27).

%--- Job 1
job(1).
operation(1,15,0,64).
operation(1,16,1,53).
operation(1,17,11,83).
operation(1,18,2,33).
operation(1,19,4,6).
operation(1,20,9,52).
operation(1,21,14,72).
operation(1,22,8,7).
operation(1,23,13,90).
operation(1,24,12,21).
operation(1,25,6,23).
operation(1,26,3,10).
operation(1,27,10,39).
operation(1,28,5,49).
operation(1,29,7,72).

%--- Job 2
job(2).
operation(2,30,14,73).
operation(2,31,3,82).
operation(2,32,1,23).
operation(2,33,12,62).
operation(2,34,6,88).
operation(2,35,5,21).
operation(2,36,8,65).
operation(2,37,11,70).
operation(2,38,7,53).
operation(2,39,10,81).
operation(2,40,2,93).
operation(2,41,13,77).
operation(2,42,0,61).
operation(2,43,9,28).
operation(2,44,4,78).

%--- Job 3
job(3).
operation(3,45,1,12).
operation(3,46,6,51).
operation(3,47,7,33).
operation(3,48,4,15).
operation(3,49,14,72).
operation(3,50,10,98).
operation(3,51,9,94).
operation(3,52,5,12).
operation(3,53,11,42).
operation(3,54,2,24).
operation(3,55,13,15).
operation(3,56,8,28).
operation(3,57,3,6).
operation(3,58,12,99).
operation(3,59,0,41).

%--- Job 4
job(4).
operation(4,60,12,97).
operation(4,61,5,7).
operation(4,62,9,96).
operation(4,63,4,15).
operation(4,64,14,73).
operation(4,65,13,43).
operation(4,66,0,32).
operation(4,67,8,22).
operation(4,68,11,42).
operation(4,69,1,94).
operation(4,70,2,23).
operation(4,71,7,86).
operation(4,72,6,78).
operation(4,73,10,24).
operation(4,74,3,31).

%--- Job 5
job(5).
operation(5,75,1,72).
operation(5,76,5,88).
operation(5,77,2,93).
operation(5,78,13,13).
operation(5,79,4,44).
operation(5,80,14,66).
operation(5,81,6,63).
operation(5,82,7,14).
operation(5,83,9,67).
operation(5,84,10,17).
operation(5,85,11,85).
operation(5,86,0,35).
operation(5,87,3,68).
operation(5,88,12,5).
operation(5,89,8,49).

%--- Job 6
job(6).
operation(6,90,9,15).
operation(6,91,7,82).
operation(6,92,6,21).
operation(6,93,14,53).
operation(6,94,3,72).
operation(6,95,13,49).
operation(6,96,2,99).
operation(6,97,4,26).
operation(6,98,12,56).
operation(6,99,8,45).
operation(6,100,1,68).
operation(6,101,10,51).
operation(6,102,0,8).
operation(6,103,5,27).
operation(6,104,11,96).

%--- Job 7
job(7).
operation(7,105,3,54).
operation(7,106,7,24).
operation(7,107,4,14).
operation(7,108,8,38).
operation(7,109,5,36).
operation(7,110,2,52).
operation(7,111,14,55).
operation(7,112,12,37).
operation(7,113,11,48).
operation(7,114,0,93).
operation(7,115,13,60).
operation(7,116,10,70).
operation(7,117,1,23).
operation(7,118,6,23).
operation(7,119,9,83).

%--- Job 8
job(8).
operation(8,120,3,12).
operation(8,121,8,69).
operation(8,122,6,26).
operation(8,123,9,23).
operation(8,124,14,28).
operation(8,125,1,82).
operation(8,126,5,33).
operation(8,127,4,45).
operation(8,128,13,64).
operation(8,129,7,15).
operation(8,130,11,9).
operation(8,131,12,73).
operation(8,132,10,59).
operation(8,133,2,37).
operation(8,134,0,62).

%--- Job 9
job(9).
operation(9,135,0,87).
operation(9,136,5,12).
operation(9,137,7,80).
operation(9,138,4,50).
operation(9,139,10,48).
operation(9,140,12,90).
operation(9,141,1,72).
operation(9,142,13,24).
operation(9,143,6,14).
operation(9,144,8,71).
operation(9,145,11,44).
operation(9,146,9,46).
operation(9,147,2,15).
operation(9,148,14,61).
operation(9,149,3,92).

%--- Job 10
job(10).
operation(10,150,2,54).
operation(10,151,0,22).
operation(10,152,6,61).
operation(10,153,4,46).
operation(10,154,3,73).
operation(10,155,5,16).
operation(10,156,12,6).
operation(10,157,9,94).
operation(10,158,14,93).
operation(10,159,13,67).
operation(10,160,8,54).
operation(10,161,7,75).
operation(10,162,11,32).
operation(10,163,10,40).
operation(10,164,1,97).

%--- Job 11
job(11).
operation(11,165,10,92).
operation(11,166,14,36).
operation(11,167,4,22).
operation(11,168,9,9).
operation(11,169,3,47).
operation(11,170,1,77).
operation(11,171,12,79).
operation(11,172,13,36).
operation(11,173,6,30).
operation(11,174,8,98).
operation(11,175,11,79).
operation(11,176,7,7).
operation(11,177,5,55).
operation(11,178,2,6).
operation(11,179,0,30).

%--- Job 12
job(12).
operation(12,180,0,49).
operation(12,181,13,83).
operation(12,182,3,73).
operation(12,183,6,82).
operation(12,184,1,82).
operation(12,185,14,92).
operation(12,186,11,73).
operation(12,187,4,31).
operation(12,188,10,35).
operation(12,189,9,54).
operation(12,190,5,7).
operation(12,191,8,37).
operation(12,192,7,72).
operation(12,193,2,52).
operation(12,194,12,76).

%--- Job 13
job(13).
operation(13,195,10,98).
operation(13,196,12,34).
operation(13,197,13,52).
operation(13,198,4,26).
operation(13,199,1,28).
operation(13,200,3,39).
operation(13,201,8,80).
operation(13,202,5,29).
operation(13,203,9,70).
operation(13,204,0,43).
operation(13,205,6,48).
operation(13,206,7,58).
operation(13,207,2,45).
operation(13,208,14,94).
operation(13,209,11,96).

%--- Job 14
job(14).
operation(14,210,1,70).
operation(14,211,10,17).
operation(14,212,6,90).
operation(14,213,12,67).
operation(14,214,4,14).
operation(14,215,8,23).
operation(14,216,3,21).
operation(14,217,7,18).
operation(14,218,13,43).
operation(14,219,11,84).
operation(14,220,5,26).
operation(14,221,9,36).
operation(14,222,2,93).
operation(14,223,14,84).
operation(14,224,0,42).

