% ========= Metadata =========
   meta(name,orb02).
   meta(num_jobs,10).
   meta(num_machines,10).
   meta(num_operations,100).
   meta(optimum,888).
   meta(upper_bound,888).
   meta(lower_bound,888).
% ==========================


machine(0..10).

%--- Job 0
job(0).
operation(0,0,0,72).
operation(0,1,1,54).
operation(0,2,2,33).
operation(0,3,3,86).
operation(0,4,4,75).
operation(0,5,5,16).
operation(0,6,6,96).
operation(0,7,7,7).
operation(0,8,8,99).
operation(0,9,9,76).

%--- Job 1
job(1).
operation(1,10,0,16).
operation(1,11,3,88).
operation(1,12,4,48).
operation(1,13,8,52).
operation(1,14,9,60).
operation(1,15,6,29).
operation(1,16,7,18).
operation(1,17,5,89).
operation(1,18,2,80).
operation(1,19,1,76).

%--- Job 2
job(2).
operation(2,20,0,47).
operation(2,21,7,11).
operation(2,22,3,14).
operation(2,23,2,56).
operation(2,24,6,16).
operation(2,25,4,83).
operation(2,26,1,10).
operation(2,27,5,61).
operation(2,28,8,24).
operation(2,29,9,58).

%--- Job 3
job(3).
operation(3,30,0,49).
operation(3,31,1,31).
operation(3,32,3,17).
operation(3,33,8,50).
operation(3,34,5,63).
operation(3,35,2,35).
operation(3,36,4,65).
operation(3,37,7,23).
operation(3,38,6,50).
operation(3,39,9,29).

%--- Job 4
job(4).
operation(4,40,0,55).
operation(4,41,6,6).
operation(4,42,1,28).
operation(4,43,3,96).
operation(4,44,5,86).
operation(4,45,2,99).
operation(4,46,9,14).
operation(4,47,7,70).
operation(4,48,8,64).
operation(4,49,4,24).

%--- Job 5
job(5).
operation(5,50,4,46).
operation(5,51,0,23).
operation(5,52,6,70).
operation(5,53,8,19).
operation(5,54,2,54).
operation(5,55,3,22).
operation(5,56,9,85).
operation(5,57,7,87).
operation(5,58,5,79).
operation(5,59,1,93).

%--- Job 6
job(6).
operation(6,60,4,76).
operation(6,61,3,60).
operation(6,62,0,76).
operation(6,63,9,98).
operation(6,64,2,76).
operation(6,65,1,50).
operation(6,66,8,86).
operation(6,67,7,14).
operation(6,68,6,27).
operation(6,69,5,57).

%--- Job 7
job(7).
operation(7,70,4,93).
operation(7,71,6,27).
operation(7,72,9,57).
operation(7,73,3,87).
operation(7,74,8,86).
operation(7,75,2,54).
operation(7,76,7,24).
operation(7,77,5,49).
operation(7,78,0,20).
operation(7,79,1,47).

%--- Job 8
job(8).
operation(8,80,2,28).
operation(8,81,6,11).
operation(8,82,8,78).
operation(8,83,7,85).
operation(8,84,4,63).
operation(8,85,9,81).
operation(8,86,3,10).
operation(8,87,1,9).
operation(8,88,5,46).
operation(8,89,0,32).

%--- Job 9
job(9).
operation(9,90,2,22).
operation(9,91,9,76).
operation(9,92,5,89).
operation(9,93,8,13).
operation(9,94,6,88).
operation(9,95,3,10).
operation(9,96,7,75).
operation(9,97,4,98).
operation(9,98,1,78).
operation(9,99,0,17).

