% ========= Metadata =========
   meta(name,orb09).
   meta(num_jobs,10).
   meta(num_machines,10).
   meta(num_operations,100).
   meta(optimum,934).
   meta(upper_bound,934).
   meta(lower_bound,934).
% ==========================


machine(0..10).

%--- Job 0
job(0).
operation(0,0,0,36).
operation(0,1,1,96).
operation(0,2,2,86).
operation(0,3,3,7).
operation(0,4,4,20).
operation(0,5,5,9).
operation(0,6,6,39).
operation(0,7,7,79).
operation(0,8,8,82).
operation(0,9,9,24).

%--- Job 1
job(1).
operation(1,10,0,16).
operation(1,11,8,95).
operation(1,12,3,67).
operation(1,13,5,63).
operation(1,14,2,87).
operation(1,15,1,24).
operation(1,16,9,62).
operation(1,17,6,49).
operation(1,18,7,92).
operation(1,19,4,16).

%--- Job 2
job(2).
operation(2,20,0,65).
operation(2,21,6,71).
operation(2,22,1,9).
operation(2,23,3,67).
operation(2,24,8,70).
operation(2,25,2,48).
operation(2,26,5,49).
operation(2,27,4,66).
operation(2,28,7,5).
operation(2,29,9,96).

%--- Job 3
job(3).
operation(3,30,0,50).
operation(3,31,1,31).
operation(3,32,4,6).
operation(3,33,8,13).
operation(3,34,5,98).
operation(3,35,7,97).
operation(3,36,6,93).
operation(3,37,9,30).
operation(3,38,3,34).
operation(3,39,2,83).

%--- Job 4
job(4).
operation(4,40,0,99).
operation(4,41,5,7).
operation(4,42,9,55).
operation(4,43,8,78).
operation(4,44,7,68).
operation(4,45,4,81).
operation(4,46,3,90).
operation(4,47,2,75).
operation(4,48,1,66).
operation(4,49,6,40).

%--- Job 5
job(5).
operation(5,50,1,42).
operation(5,51,5,11).
operation(5,52,0,5).
operation(5,53,9,39).
operation(5,54,2,10).
operation(5,55,8,30).
operation(5,56,3,39).
operation(5,57,6,50).
operation(5,58,7,20).
operation(5,59,4,51).

%--- Job 6
job(6).
operation(6,60,0,38).
operation(6,61,3,68).
operation(6,62,8,86).
operation(6,63,7,77).
operation(6,64,9,32).
operation(6,65,2,89).
operation(6,66,4,37).
operation(6,67,6,53).
operation(6,68,1,43).
operation(6,69,5,89).

%--- Job 7
job(7).
operation(7,70,0,19).
operation(7,71,9,11).
operation(7,72,4,37).
operation(7,73,1,41).
operation(7,74,5,72).
operation(7,75,7,7).
operation(7,76,2,52).
operation(7,77,6,31).
operation(7,78,3,68).
operation(7,79,8,10).

%--- Job 8
job(8).
operation(8,80,0,83).
operation(8,81,1,21).
operation(8,82,9,23).
operation(8,83,7,87).
operation(8,84,8,58).
operation(8,85,6,89).
operation(8,86,4,74).
operation(8,87,5,29).
operation(8,88,2,74).
operation(8,89,3,23).

%--- Job 9
job(9).
operation(9,90,0,44).
operation(9,91,2,57).
operation(9,92,4,69).
operation(9,93,9,50).
operation(9,94,1,65).
operation(9,95,5,69).
operation(9,96,8,60).
operation(9,97,3,58).
operation(9,98,6,89).
operation(9,99,7,13).

