% ========= Metadata =========
   meta(name,orb03).
   meta(num_jobs,10).
   meta(num_machines,10).
   meta(num_operations,100).
   meta(optimum,1005).
   meta(upper_bound,1005).
   meta(lower_bound,1005).
% ==========================


machine(0..10).

%--- Job 0
job(0).
operation(0,0,0,96).
operation(0,1,1,69).
operation(0,2,2,25).
operation(0,3,3,5).
operation(0,4,4,55).
operation(0,5,5,15).
operation(0,6,6,88).
operation(0,7,7,11).
operation(0,8,8,17).
operation(0,9,9,82).

%--- Job 1
job(1).
operation(1,10,0,11).
operation(1,11,1,48).
operation(1,12,2,67).
operation(1,13,3,38).
operation(1,14,4,18).
operation(1,15,7,24).
operation(1,16,6,62).
operation(1,17,5,92).
operation(1,18,9,96).
operation(1,19,8,81).

%--- Job 2
job(2).
operation(2,20,2,67).
operation(2,21,1,63).
operation(2,22,0,93).
operation(2,23,4,85).
operation(2,24,3,25).
operation(2,25,5,72).
operation(2,26,6,51).
operation(2,27,7,81).
operation(2,28,8,58).
operation(2,29,9,15).

%--- Job 3
job(3).
operation(3,30,2,30).
operation(3,31,1,35).
operation(3,32,0,27).
operation(3,33,4,82).
operation(3,34,3,44).
operation(3,35,7,92).
operation(3,36,6,25).
operation(3,37,5,49).
operation(3,38,9,28).
operation(3,39,8,77).

%--- Job 4
job(4).
operation(4,40,1,53).
operation(4,41,0,83).
operation(4,42,4,73).
operation(4,43,3,26).
operation(4,44,2,77).
operation(4,45,6,33).
operation(4,46,5,92).
operation(4,47,9,99).
operation(4,48,8,38).
operation(4,49,7,38).

%--- Job 5
job(5).
operation(5,50,1,20).
operation(5,51,0,44).
operation(5,52,4,81).
operation(5,53,3,88).
operation(5,54,2,66).
operation(5,55,6,70).
operation(5,56,5,91).
operation(5,57,9,37).
operation(5,58,8,55).
operation(5,59,7,96).

%--- Job 6
job(6).
operation(6,60,1,21).
operation(6,61,2,93).
operation(6,62,4,22).
operation(6,63,0,56).
operation(6,64,3,34).
operation(6,65,6,40).
operation(6,66,7,53).
operation(6,67,9,46).
operation(6,68,5,29).
operation(6,69,8,63).

%--- Job 7
job(7).
operation(7,70,1,32).
operation(7,71,2,63).
operation(7,72,4,36).
operation(7,73,0,26).
operation(7,74,3,17).
operation(7,75,5,85).
operation(7,76,7,15).
operation(7,77,8,55).
operation(7,78,9,16).
operation(7,79,6,82).

%--- Job 8
job(8).
operation(8,80,0,73).
operation(8,81,2,46).
operation(8,82,3,89).
operation(8,83,4,24).
operation(8,84,1,99).
operation(8,85,6,92).
operation(8,86,7,7).
operation(8,87,9,51).
operation(8,88,5,19).
operation(8,89,8,14).

%--- Job 9
job(9).
operation(9,90,0,52).
operation(9,91,2,20).
operation(9,92,3,70).
operation(9,93,4,98).
operation(9,94,1,23).
operation(9,95,5,15).
operation(9,96,7,81).
operation(9,97,8,71).
operation(9,98,9,24).
operation(9,99,6,81).

