% ========= Metadata =========
   meta(name,orb05).
   meta(num_jobs,10).
   meta(num_machines,10).
   meta(num_operations,100).
   meta(optimum,887).
   meta(upper_bound,887).
   meta(lower_bound,887).
% ==========================


machine(0..10).

%--- Job 0
job(0).
operation(0,0,9,11).
operation(0,1,8,93).
operation(0,2,0,48).
operation(0,3,7,76).
operation(0,4,6,13).
operation(0,5,5,71).
operation(0,6,3,59).
operation(0,7,2,90).
operation(0,8,4,10).
operation(0,9,1,65).

%--- Job 1
job(1).
operation(1,10,8,52).
operation(1,11,9,76).
operation(1,12,0,84).
operation(1,13,7,73).
operation(1,14,5,56).
operation(1,15,4,10).
operation(1,16,6,26).
operation(1,17,2,43).
operation(1,18,3,39).
operation(1,19,1,49).

%--- Job 2
job(2).
operation(2,20,9,28).
operation(2,21,8,44).
operation(2,22,7,26).
operation(2,23,6,66).
operation(2,24,4,68).
operation(2,25,5,74).
operation(2,26,3,27).
operation(2,27,2,14).
operation(2,28,1,6).
operation(2,29,0,21).

%--- Job 3
job(3).
operation(3,30,0,18).
operation(3,31,1,58).
operation(3,32,3,62).
operation(3,33,2,46).
operation(3,34,6,25).
operation(3,35,4,6).
operation(3,36,5,60).
operation(3,37,7,28).
operation(3,38,8,80).
operation(3,39,9,30).

%--- Job 4
job(4).
operation(4,40,0,78).
operation(4,41,1,47).
operation(4,42,7,29).
operation(4,43,5,16).
operation(4,44,4,29).
operation(4,45,6,57).
operation(4,46,3,78).
operation(4,47,2,87).
operation(4,48,8,39).
operation(4,49,9,73).

%--- Job 5
job(5).
operation(5,50,9,66).
operation(5,51,8,51).
operation(5,52,3,12).
operation(5,53,7,64).
operation(5,54,5,67).
operation(5,55,4,15).
operation(5,56,6,66).
operation(5,57,2,26).
operation(5,58,1,20).
operation(5,59,0,98).

%--- Job 6
job(6).
operation(6,60,8,23).
operation(6,61,9,76).
operation(6,62,6,45).
operation(6,63,7,75).
operation(6,64,5,24).
operation(6,65,3,18).
operation(6,66,4,83).
operation(6,67,2,15).
operation(6,68,1,88).
operation(6,69,0,17).

%--- Job 7
job(7).
operation(7,70,9,56).
operation(7,71,8,83).
operation(7,72,7,80).
operation(7,73,6,16).
operation(7,74,4,31).
operation(7,75,5,93).
operation(7,76,3,30).
operation(7,77,2,29).
operation(7,78,1,66).
operation(7,79,0,28).

%--- Job 8
job(8).
operation(8,80,9,79).
operation(8,81,8,69).
operation(8,82,2,82).
operation(8,83,4,16).
operation(8,84,5,62).
operation(8,85,3,41).
operation(8,86,6,91).
operation(8,87,7,35).
operation(8,88,0,34).
operation(8,89,1,75).

%--- Job 9
job(9).
operation(9,90,0,5).
operation(9,91,1,19).
operation(9,92,2,20).
operation(9,93,3,12).
operation(9,94,4,94).
operation(9,95,5,60).
operation(9,96,6,99).
operation(9,97,7,31).
operation(9,98,8,96).
operation(9,99,9,63).

