% ========= Metadata =========
   meta(name,orb01).
   meta(num_jobs,10).
   meta(num_machines,10).
   meta(num_operations,100).
   meta(optimum,1059).
   meta(upper_bound,1059).
   meta(lower_bound,1059).
% ==========================


machine(0..10).

%--- Job 0
job(0).
operation(0,0,0,72).
operation(0,1,1,64).
operation(0,2,2,55).
operation(0,3,3,31).
operation(0,4,4,53).
operation(0,5,5,95).
operation(0,6,6,11).
operation(0,7,7,52).
operation(0,8,8,6).
operation(0,9,9,84).

%--- Job 1
job(1).
operation(1,10,0,61).
operation(1,11,3,27).
operation(1,12,4,88).
operation(1,13,2,78).
operation(1,14,1,49).
operation(1,15,5,83).
operation(1,16,8,91).
operation(1,17,6,74).
operation(1,18,7,29).
operation(1,19,9,87).

%--- Job 2
job(2).
operation(2,20,0,86).
operation(2,21,3,32).
operation(2,22,1,35).
operation(2,23,2,37).
operation(2,24,5,18).
operation(2,25,4,48).
operation(2,26,6,91).
operation(2,27,7,52).
operation(2,28,9,60).
operation(2,29,8,30).

%--- Job 3
job(3).
operation(3,30,0,8).
operation(3,31,1,82).
operation(3,32,4,27).
operation(3,33,3,99).
operation(3,34,6,74).
operation(3,35,5,9).
operation(3,36,2,33).
operation(3,37,9,20).
operation(3,38,7,59).
operation(3,39,8,98).

%--- Job 4
job(4).
operation(4,40,1,50).
operation(4,41,0,94).
operation(4,42,5,43).
operation(4,43,3,62).
operation(4,44,4,55).
operation(4,45,7,48).
operation(4,46,2,5).
operation(4,47,8,36).
operation(4,48,9,47).
operation(4,49,6,36).

%--- Job 5
job(5).
operation(5,50,0,53).
operation(5,51,6,30).
operation(5,52,2,7).
operation(5,53,3,12).
operation(5,54,1,68).
operation(5,55,8,87).
operation(5,56,4,28).
operation(5,57,9,70).
operation(5,58,7,45).
operation(5,59,5,7).

%--- Job 6
job(6).
operation(6,60,2,29).
operation(6,61,3,96).
operation(6,62,0,99).
operation(6,63,1,14).
operation(6,64,4,34).
operation(6,65,7,14).
operation(6,66,5,7).
operation(6,67,6,76).
operation(6,68,8,57).
operation(6,69,9,76).

%--- Job 7
job(7).
operation(7,70,2,90).
operation(7,71,0,19).
operation(7,72,3,87).
operation(7,73,4,51).
operation(7,74,1,84).
operation(7,75,5,45).
operation(7,76,9,84).
operation(7,77,6,58).
operation(7,78,7,81).
operation(7,79,8,96).

%--- Job 8
job(8).
operation(8,80,2,97).
operation(8,81,1,99).
operation(8,82,4,93).
operation(8,83,0,38).
operation(8,84,7,13).
operation(8,85,5,96).
operation(8,86,3,40).
operation(8,87,9,64).
operation(8,88,6,32).
operation(8,89,8,45).

%--- Job 9
job(9).
operation(9,90,2,44).
operation(9,91,0,60).
operation(9,92,8,29).
operation(9,93,3,5).
operation(9,94,6,74).
operation(9,95,1,85).
operation(9,96,4,34).
operation(9,97,7,95).
operation(9,98,9,51).
operation(9,99,5,47).

