% ========= Metadata =========
   meta(name,orb10).
   meta(num_jobs,10).
   meta(num_machines,10).
   meta(num_operations,100).
   meta(optimum,944).
   meta(upper_bound,944).
   meta(lower_bound,944).
% ==========================


machine(0..10).

%--- Job 0
job(0).
operation(0,0,9,66).
operation(0,1,8,13).
operation(0,2,0,93).
operation(0,3,7,91).
operation(0,4,6,14).
operation(0,5,5,70).
operation(0,6,3,99).
operation(0,7,2,53).
operation(0,8,4,86).
operation(0,9,1,16).

%--- Job 1
job(1).
operation(1,10,8,34).
operation(1,11,9,99).
operation(1,12,0,62).
operation(1,13,7,65).
operation(1,14,5,62).
operation(1,15,4,64).
operation(1,16,6,21).
operation(1,17,2,12).
operation(1,18,3,9).
operation(1,19,1,75).

%--- Job 2
job(2).
operation(2,20,9,12).
operation(2,21,8,26).
operation(2,22,7,64).
operation(2,23,6,92).
operation(2,24,4,67).
operation(2,25,5,28).
operation(2,26,3,66).
operation(2,27,2,83).
operation(2,28,1,38).
operation(2,29,0,58).

%--- Job 3
job(3).
operation(3,30,0,77).
operation(3,31,1,73).
operation(3,32,3,82).
operation(3,33,2,75).
operation(3,34,6,84).
operation(3,35,4,19).
operation(3,36,5,18).
operation(3,37,7,89).
operation(3,38,8,8).
operation(3,39,9,73).

%--- Job 4
job(4).
operation(4,40,0,34).
operation(4,41,1,74).
operation(4,42,7,48).
operation(4,43,5,44).
operation(4,44,4,92).
operation(4,45,6,40).
operation(4,46,3,60).
operation(4,47,2,62).
operation(4,48,8,22).
operation(4,49,9,67).

%--- Job 5
job(5).
operation(5,50,9,8).
operation(5,51,8,85).
operation(5,52,3,58).
operation(5,53,7,97).
operation(5,54,5,92).
operation(5,55,4,89).
operation(5,56,6,75).
operation(5,57,2,77).
operation(5,58,1,95).
operation(5,59,0,5).

%--- Job 6
job(6).
operation(6,60,8,52).
operation(6,61,9,43).
operation(6,62,6,5).
operation(6,63,7,78).
operation(6,64,5,12).
operation(6,65,3,62).
operation(6,66,4,21).
operation(6,67,2,80).
operation(6,68,1,60).
operation(6,69,0,31).

%--- Job 7
job(7).
operation(7,70,9,81).
operation(7,71,8,23).
operation(7,72,7,23).
operation(7,73,6,75).
operation(7,74,4,78).
operation(7,75,5,56).
operation(7,76,3,51).
operation(7,77,2,39).
operation(7,78,1,53).
operation(7,79,0,96).

%--- Job 8
job(8).
operation(8,80,9,79).
operation(8,81,8,55).
operation(8,82,2,88).
operation(8,83,4,21).
operation(8,84,5,83).
operation(8,85,3,93).
operation(8,86,6,47).
operation(8,87,7,10).
operation(8,88,0,63).
operation(8,89,1,14).

%--- Job 9
job(9).
operation(9,90,0,43).
operation(9,91,1,63).
operation(9,92,2,83).
operation(9,93,3,29).
operation(9,94,4,52).
operation(9,95,5,98).
operation(9,96,6,54).
operation(9,97,7,39).
operation(9,98,8,33).
operation(9,99,9,23).

