% ========= Metadata =========
   meta(name,swv05).
   meta(num_jobs,20).
   meta(num_machines,10).
   meta(num_operations,200).
   meta(optimum,1424).
   meta(upper_bound,1424).
   meta(lower_bound,1424).
% ==========================


machine(0..10).

%--- Job 0
job(0).
operation(0,0,2,19).
operation(0,1,1,30).
operation(0,2,3,80).
operation(0,3,0,84).
operation(0,4,4,14).
operation(0,5,8,51).
operation(0,6,5,73).
operation(0,7,6,91).
operation(0,8,7,81).
operation(0,9,9,71).

%--- Job 1
job(1).
operation(1,10,2,74).
operation(1,11,4,79).
operation(1,12,1,39).
operation(1,13,0,7).
operation(1,14,3,66).
operation(1,15,9,6).
operation(1,16,5,93).
operation(1,17,8,76).
operation(1,18,6,21).
operation(1,19,7,76).

%--- Job 2
job(2).
operation(2,20,4,90).
operation(2,21,3,33).
operation(2,22,1,38).
operation(2,23,2,73).
operation(2,24,0,61).
operation(2,25,8,61).
operation(2,26,7,76).
operation(2,27,5,86).
operation(2,28,9,28).
operation(2,29,6,35).

%--- Job 3
job(3).
operation(3,30,4,1).
operation(3,31,3,22).
operation(3,32,2,1).
operation(3,33,0,77).
operation(3,34,1,33).
operation(3,35,6,98).
operation(3,36,5,4).
operation(3,37,9,27).
operation(3,38,8,8).
operation(3,39,7,68).

%--- Job 4
job(4).
operation(4,40,2,63).
operation(4,41,4,5).
operation(4,42,1,95).
operation(4,43,0,7).
operation(4,44,3,50).
operation(4,45,8,46).
operation(4,46,9,28).
operation(4,47,6,70).
operation(4,48,5,60).
operation(4,49,7,34).

%--- Job 5
job(5).
operation(5,50,0,98).
operation(5,51,1,73).
operation(5,52,4,15).
operation(5,53,3,21).
operation(5,54,2,32).
operation(5,55,7,24).
operation(5,56,9,9).
operation(5,57,8,24).
operation(5,58,5,7).
operation(5,59,6,34).

%--- Job 6
job(6).
operation(6,60,3,51).
operation(6,61,4,47).
operation(6,62,2,30).
operation(6,63,1,16).
operation(6,64,0,51).
operation(6,65,5,41).
operation(6,66,6,79).
operation(6,67,7,79).
operation(6,68,9,3).
operation(6,69,8,72).

%--- Job 7
job(7).
operation(7,70,4,3).
operation(7,71,1,59).
operation(7,72,0,53).
operation(7,73,3,20).
operation(7,74,2,19).
operation(7,75,6,20).
operation(7,76,9,16).
operation(7,77,7,90).
operation(7,78,5,96).
operation(7,79,8,18).

%--- Job 8
job(8).
operation(8,80,1,34).
operation(8,81,2,55).
operation(8,82,3,97).
operation(8,83,0,93).
operation(8,84,4,90).
operation(8,85,7,81).
operation(8,86,5,63).
operation(8,87,8,41).
operation(8,88,6,1).
operation(8,89,9,51).

%--- Job 9
job(9).
operation(9,90,4,77).
operation(9,91,3,87).
operation(9,92,1,92).
operation(9,93,2,83).
operation(9,94,0,45).
operation(9,95,7,75).
operation(9,96,9,60).
operation(9,97,6,75).
operation(9,98,5,93).
operation(9,99,8,33).

%--- Job 10
job(10).
operation(10,100,0,31).
operation(10,101,2,66).
operation(10,102,1,58).
operation(10,103,4,17).
operation(10,104,3,94).
operation(10,105,5,63).
operation(10,106,7,80).
operation(10,107,9,61).
operation(10,108,6,78).
operation(10,109,8,52).

%--- Job 11
job(11).
operation(11,110,4,70).
operation(11,111,1,25).
operation(11,112,2,75).
operation(11,113,0,89).
operation(11,114,3,41).
operation(11,115,7,100).
operation(11,116,5,73).
operation(11,117,6,28).
operation(11,118,8,94).
operation(11,119,9,88).

%--- Job 12
job(12).
operation(12,120,1,67).
operation(12,121,4,62).
operation(12,122,3,12).
operation(12,123,2,55).
operation(12,124,0,62).
operation(12,125,5,58).
operation(12,126,8,66).
operation(12,127,7,73).
operation(12,128,6,55).
operation(12,129,9,1).

%--- Job 13
job(13).
operation(13,130,4,81).
operation(13,131,0,37).
operation(13,132,1,2).
operation(13,133,3,39).
operation(13,134,2,17).
operation(13,135,7,74).
operation(13,136,6,71).
operation(13,137,8,61).
operation(13,138,5,42).
operation(13,139,9,5).

%--- Job 14
job(14).
operation(14,140,3,62).
operation(14,141,0,31).
operation(14,142,4,63).
operation(14,143,2,31).
operation(14,144,1,5).
operation(14,145,9,7).
operation(14,146,7,77).
operation(14,147,8,34).
operation(14,148,6,34).
operation(14,149,5,3).

%--- Job 15
job(15).
operation(15,150,0,5).
operation(15,151,2,55).
operation(15,152,3,62).
operation(15,153,1,82).
operation(15,154,4,80).
operation(15,155,6,6).
operation(15,156,8,7).
operation(15,157,7,29).
operation(15,158,5,80).
operation(15,159,9,89).

%--- Job 16
job(16).
operation(16,160,3,26).
operation(16,161,1,50).
operation(16,162,2,58).
operation(16,163,0,22).
operation(16,164,4,68).
operation(16,165,7,12).
operation(16,166,6,9).
operation(16,167,9,34).
operation(16,168,5,90).
operation(16,169,8,87).

%--- Job 17
job(17).
operation(17,170,0,50).
operation(17,171,2,28).
operation(17,172,1,64).
operation(17,173,4,34).
operation(17,174,3,63).
operation(17,175,7,9).
operation(17,176,9,48).
operation(17,177,6,63).
operation(17,178,8,61).
operation(17,179,5,2).

%--- Job 18
job(18).
operation(18,180,0,47).
operation(18,181,2,23).
operation(18,182,1,23).
operation(18,183,4,82).
operation(18,184,3,98).
operation(18,185,7,66).
operation(18,186,6,78).
operation(18,187,8,100).
operation(18,188,9,79).
operation(18,189,5,32).

%--- Job 19
job(19).
operation(19,190,1,13).
operation(19,191,4,14).
operation(19,192,0,90).
operation(19,193,2,77).
operation(19,194,3,80).
operation(19,195,9,30).
operation(19,196,7,31).
operation(19,197,5,36).
operation(19,198,6,51).
operation(19,199,8,69).

