% ========= Metadata =========
   meta(name,swv09).
   meta(num_jobs,20).
   meta(num_machines,15).
   meta(num_operations,300).
   meta(optimum,None).
   meta(upper_bound,1655).
   meta(lower_bound,1633).
% ==========================


machine(0..15).

%--- Job 0
job(0).
operation(0,0,5,8).
operation(0,1,3,73).
operation(0,2,0,69).
operation(0,3,2,38).
operation(0,4,6,6).
operation(0,5,4,62).
operation(0,6,1,78).
operation(0,7,9,79).
operation(0,8,8,59).
operation(0,9,13,77).
operation(0,10,11,22).
operation(0,11,10,80).
operation(0,12,12,58).
operation(0,13,14,49).
operation(0,14,7,48).

%--- Job 1
job(1).
operation(1,15,3,34).
operation(1,16,4,29).
operation(1,17,2,69).
operation(1,18,0,5).
operation(1,19,5,63).
operation(1,20,1,82).
operation(1,21,6,94).
operation(1,22,14,17).
operation(1,23,11,94).
operation(1,24,9,29).
operation(1,25,10,5).
operation(1,26,13,75).
operation(1,27,7,15).
operation(1,28,8,61).
operation(1,29,12,61).

%--- Job 2
job(2).
operation(2,30,1,52).
operation(2,31,2,30).
operation(2,32,0,25).
operation(2,33,6,17).
operation(2,34,3,46).
operation(2,35,4,86).
operation(2,36,5,3).
operation(2,37,14,70).
operation(2,38,11,34).
operation(2,39,9,23).
operation(2,40,10,68).
operation(2,41,13,76).
operation(2,42,8,53).
operation(2,43,12,71).
operation(2,44,7,9).

%--- Job 3
job(3).
operation(3,45,2,50).
operation(3,46,4,20).
operation(3,47,3,24).
operation(3,48,0,53).
operation(3,49,1,97).
operation(3,50,5,79).
operation(3,51,6,92).
operation(3,52,14,3).
operation(3,53,12,52).
operation(3,54,10,75).
operation(3,55,9,74).
operation(3,56,8,59).
operation(3,57,7,75).
operation(3,58,13,84).
operation(3,59,11,99).

%--- Job 4
job(4).
operation(4,60,2,15).
operation(4,61,0,61).
operation(4,62,3,47).
operation(4,63,4,38).
operation(4,64,6,49).
operation(4,65,5,21).
operation(4,66,1,6).
operation(4,67,11,8).
operation(4,68,8,71).
operation(4,69,14,83).
operation(4,70,13,24).
operation(4,71,12,18).
operation(4,72,9,33).
operation(4,73,7,70).
operation(4,74,10,100).

%--- Job 5
job(5).
operation(5,75,4,48).
operation(5,76,5,50).
operation(5,77,2,66).
operation(5,78,0,92).
operation(5,79,6,2).
operation(5,80,3,58).
operation(5,81,1,23).
operation(5,82,9,84).
operation(5,83,8,66).
operation(5,84,10,12).
operation(5,85,7,36).
operation(5,86,14,4).
operation(5,87,12,88).
operation(5,88,13,64).
operation(5,89,11,12).

%--- Job 6
job(6).
operation(6,90,3,29).
operation(6,91,0,25).
operation(6,92,6,44).
operation(6,93,5,87).
operation(6,94,2,42).
operation(6,95,1,44).
operation(6,96,4,86).
operation(6,97,8,28).
operation(6,98,10,86).
operation(6,99,9,74).
operation(6,100,14,77).
operation(6,101,13,59).
operation(6,102,12,94).
operation(6,103,7,58).
operation(6,104,11,16).

%--- Job 7
job(7).
operation(7,105,4,31).
operation(7,106,3,58).
operation(7,107,0,94).
operation(7,108,5,69).
operation(7,109,2,44).
operation(7,110,1,93).
operation(7,111,6,92).
operation(7,112,9,80).
operation(7,113,8,63).
operation(7,114,12,47).
operation(7,115,13,3).
operation(7,116,7,79).
operation(7,117,11,39).
operation(7,118,14,80).
operation(7,119,10,75).

%--- Job 8
job(8).
operation(8,120,1,69).
operation(8,121,2,27).
operation(8,122,0,76).
operation(8,123,5,19).
operation(8,124,6,86).
operation(8,125,3,16).
operation(8,126,4,31).
operation(8,127,12,33).
operation(8,128,9,69).
operation(8,129,13,19).
operation(8,130,10,43).
operation(8,131,14,9).
operation(8,132,11,37).
operation(8,133,7,35).
operation(8,134,8,24).

%--- Job 9
job(9).
operation(9,135,2,75).
operation(9,136,3,78).
operation(9,137,6,41).
operation(9,138,4,60).
operation(9,139,5,59).
operation(9,140,0,42).
operation(9,141,1,60).
operation(9,142,12,18).
operation(9,143,8,31).
operation(9,144,10,15).
operation(9,145,7,54).
operation(9,146,14,60).
operation(9,147,9,20).
operation(9,148,11,61).
operation(9,149,13,69).

%--- Job 10
job(10).
operation(10,150,4,89).
operation(10,151,6,20).
operation(10,152,1,27).
operation(10,153,5,78).
operation(10,154,3,2).
operation(10,155,2,21).
operation(10,156,0,55).
operation(10,157,13,79).
operation(10,158,11,77).
operation(10,159,10,99).
operation(10,160,9,70).
operation(10,161,12,30).
operation(10,162,7,97).
operation(10,163,8,41).
operation(10,164,14,98).

%--- Job 11
job(11).
operation(11,165,6,1).
operation(11,166,2,10).
operation(11,167,4,84).
operation(11,168,5,72).
operation(11,169,0,14).
operation(11,170,1,9).
operation(11,171,3,51).
operation(11,172,7,22).
operation(11,173,14,65).
operation(11,174,10,100).
operation(11,175,13,65).
operation(11,176,11,43).
operation(11,177,8,10).
operation(11,178,12,14).
operation(11,179,9,19).

%--- Job 12
job(12).
operation(12,180,5,50).
operation(12,181,2,13).
operation(12,182,3,49).
operation(12,183,6,75).
operation(12,184,1,42).
operation(12,185,0,81).
operation(12,186,4,89).
operation(12,187,9,100).
operation(12,188,14,54).
operation(12,189,13,37).
operation(12,190,10,7).
operation(12,191,11,38).
operation(12,192,8,25).
operation(12,193,12,78).
operation(12,194,7,79).

%--- Job 13
job(13).
operation(13,195,2,44).
operation(13,196,3,77).
operation(13,197,5,26).
operation(13,198,1,42).
operation(13,199,4,9).
operation(13,200,6,73).
operation(13,201,0,60).
operation(13,202,9,61).
operation(13,203,10,85).
operation(13,204,12,14).
operation(13,205,11,92).
operation(13,206,7,100).
operation(13,207,14,49).
operation(13,208,8,46).
operation(13,209,13,12).

%--- Job 14
job(14).
operation(14,210,2,72).
operation(14,211,0,53).
operation(14,212,1,43).
operation(14,213,5,65).
operation(14,214,6,59).
operation(14,215,4,87).
operation(14,216,3,13).
operation(14,217,8,71).
operation(14,218,12,25).
operation(14,219,9,71).
operation(14,220,10,89).
operation(14,221,11,2).
operation(14,222,7,76).
operation(14,223,14,21).
operation(14,224,13,12).

%--- Job 15
job(15).
operation(15,225,2,60).
operation(15,226,6,28).
operation(15,227,5,33).
operation(15,228,1,36).
operation(15,229,0,6).
operation(15,230,3,96).
operation(15,231,4,48).
operation(15,232,9,40).
operation(15,233,11,79).
operation(15,234,10,60).
operation(15,235,8,39).
operation(15,236,13,34).
operation(15,237,7,54).
operation(15,238,12,20).
operation(15,239,14,52).

%--- Job 16
job(16).
operation(16,240,5,82).
operation(16,241,2,12).
operation(16,242,3,11).
operation(16,243,4,61).
operation(16,244,1,21).
operation(16,245,0,21).
operation(16,246,6,34).
operation(16,247,12,86).
operation(16,248,14,53).
operation(16,249,8,7).
operation(16,250,9,4).
operation(16,251,7,95).
operation(16,252,10,62).
operation(16,253,13,54).
operation(16,254,11,82).

%--- Job 17
job(17).
operation(17,255,5,72).
operation(17,256,0,13).
operation(17,257,3,46).
operation(17,258,6,97).
operation(17,259,1,87).
operation(17,260,4,87).
operation(17,261,2,11).
operation(17,262,7,45).
operation(17,263,14,85).
operation(17,264,11,66).
operation(17,265,8,43).
operation(17,266,9,39).
operation(17,267,13,34).
operation(17,268,10,30).
operation(17,269,12,55).

%--- Job 18
job(18).
operation(18,270,1,39).
operation(18,271,5,19).
operation(18,272,0,19).
operation(18,273,4,73).
operation(18,274,6,63).
operation(18,275,3,30).
operation(18,276,2,69).
operation(18,277,9,36).
operation(18,278,7,13).
operation(18,279,10,96).
operation(18,280,12,27).
operation(18,281,13,59).
operation(18,282,14,76).
operation(18,283,11,62).
operation(18,284,8,14).

%--- Job 19
job(19).
operation(19,285,1,7).
operation(19,286,4,14).
operation(19,287,3,79).
operation(19,288,2,27).
operation(19,289,6,43).
operation(19,290,0,96).
operation(19,291,5,24).
operation(19,292,11,30).
operation(19,293,7,27).
operation(19,294,12,2).
operation(19,295,8,69).
operation(19,296,14,75).
operation(19,297,13,34).
operation(19,298,10,79).
operation(19,299,9,96).

