% ========= Metadata =========
   meta(name,swv08).
   meta(num_jobs,20).
   meta(num_machines,15).
   meta(num_operations,300).
   meta(optimum,None).
   meta(upper_bound,1752).
   meta(lower_bound,1671).
% ==========================


machine(0..15).

%--- Job 0
job(0).
operation(0,0,3,8).
operation(0,1,4,73).
operation(0,2,2,49).
operation(0,3,5,24).
operation(0,4,6,81).
operation(0,5,1,68).
operation(0,6,0,23).
operation(0,7,12,69).
operation(0,8,8,74).
operation(0,9,10,45).
operation(0,10,11,4).
operation(0,11,14,59).
operation(0,12,9,25).
operation(0,13,7,70).
operation(0,14,13,68).

%--- Job 1
job(1).
operation(1,15,3,34).
operation(1,16,2,33).
operation(1,17,5,7).
operation(1,18,1,69).
operation(1,19,4,54).
operation(1,20,6,18).
operation(1,21,0,38).
operation(1,22,8,28).
operation(1,23,12,12).
operation(1,24,14,50).
operation(1,25,10,66).
operation(1,26,7,81).
operation(1,27,9,81).
operation(1,28,13,91).
operation(1,29,11,66).

%--- Job 2
job(2).
operation(2,30,0,8).
operation(2,31,6,20).
operation(2,32,3,52).
operation(2,33,4,83).
operation(2,34,5,18).
operation(2,35,2,82).
operation(2,36,1,68).
operation(2,37,7,50).
operation(2,38,14,54).
operation(2,39,11,6).
operation(2,40,10,73).
operation(2,41,13,48).
operation(2,42,9,20).
operation(2,43,8,93).
operation(2,44,12,99).

%--- Job 3
job(3).
operation(3,45,2,41).
operation(3,46,0,72).
operation(3,47,1,91).
operation(3,48,4,52).
operation(3,49,5,30).
operation(3,50,3,1).
operation(3,51,6,92).
operation(3,52,13,52).
operation(3,53,8,41).
operation(3,54,9,45).
operation(3,55,14,43).
operation(3,56,12,97).
operation(3,57,10,64).
operation(3,58,11,71).
operation(3,59,7,76).

%--- Job 4
job(4).
operation(4,60,0,48).
operation(4,61,1,44).
operation(4,62,5,49).
operation(4,63,6,92).
operation(4,64,3,29).
operation(4,65,2,29).
operation(4,66,4,88).
operation(4,67,14,14).
operation(4,68,10,99).
operation(4,69,8,22).
operation(4,70,13,79).
operation(4,71,9,93).
operation(4,72,12,69).
operation(4,73,11,63).
operation(4,74,7,68).

%--- Job 5
job(5).
operation(5,75,0,56).
operation(5,76,6,42).
operation(5,77,2,42).
operation(5,78,3,93).
operation(5,79,1,80).
operation(5,80,4,54).
operation(5,81,5,94).
operation(5,82,12,80).
operation(5,83,14,69).
operation(5,84,11,39).
operation(5,85,8,85).
operation(5,86,10,95).
operation(5,87,13,12).
operation(5,88,9,28).
operation(5,89,7,64).

%--- Job 6
job(6).
operation(6,90,0,90).
operation(6,91,4,75).
operation(6,92,6,9).
operation(6,93,1,46).
operation(6,94,2,91).
operation(6,95,3,93).
operation(6,96,5,93).
operation(6,97,14,77).
operation(6,98,9,63).
operation(6,99,11,50).
operation(6,100,12,82).
operation(6,101,13,74).
operation(6,102,8,67).
operation(6,103,7,72).
operation(6,104,10,76).

%--- Job 7
job(7).
operation(7,105,0,55).
operation(7,106,2,90).
operation(7,107,6,11).
operation(7,108,3,60).
operation(7,109,4,75).
operation(7,110,1,23).
operation(7,111,5,74).
operation(7,112,11,54).
operation(7,113,7,97).
operation(7,114,12,32).
operation(7,115,13,67).
operation(7,116,10,15).
operation(7,117,14,48).
operation(7,118,8,100).
operation(7,119,9,55).

%--- Job 8
job(8).
operation(8,120,6,71).
operation(8,121,5,64).
operation(8,122,2,40).
operation(8,123,0,32).
operation(8,124,3,92).
operation(8,125,1,59).
operation(8,126,4,69).
operation(8,127,13,68).
operation(8,128,14,34).
operation(8,129,12,71).
operation(8,130,8,28).
operation(8,131,9,94).
operation(8,132,7,82).
operation(8,133,10,1).
operation(8,134,11,58).

%--- Job 9
job(9).
operation(9,135,6,36).
operation(9,136,4,46).
operation(9,137,1,50).
operation(9,138,5,87).
operation(9,139,3,33).
operation(9,140,2,94).
operation(9,141,0,3).
operation(9,142,14,60).
operation(9,143,11,45).
operation(9,144,13,84).
operation(9,145,9,1).
operation(9,146,8,38).
operation(9,147,10,22).
operation(9,148,12,39).
operation(9,149,7,50).

%--- Job 10
job(10).
operation(10,150,1,53).
operation(10,151,0,34).
operation(10,152,5,56).
operation(10,153,6,97).
operation(10,154,3,95).
operation(10,155,4,32).
operation(10,156,2,28).
operation(10,157,14,48).
operation(10,158,7,54).
operation(10,159,12,98).
operation(10,160,8,84).
operation(10,161,9,77).
operation(10,162,10,46).
operation(10,163,13,65).
operation(10,164,11,94).

%--- Job 11
job(11).
operation(11,165,2,1).
operation(11,166,5,97).
operation(11,167,0,77).
operation(11,168,4,82).
operation(11,169,6,14).
operation(11,170,1,18).
operation(11,171,3,74).
operation(11,172,14,52).
operation(11,173,11,14).
operation(11,174,12,93).
operation(11,175,9,35).
operation(11,176,8,34).
operation(11,177,13,84).
operation(11,178,10,6).
operation(11,179,7,81).

%--- Job 12
job(12).
operation(12,180,1,62).
operation(12,181,0,86).
operation(12,182,2,57).
operation(12,183,6,80).
operation(12,184,5,37).
operation(12,185,3,94).
operation(12,186,4,77).
operation(12,187,7,72).
operation(12,188,9,26).
operation(12,189,11,41).
operation(12,190,10,7).
operation(12,191,8,56).
operation(12,192,13,98).
operation(12,193,14,67).
operation(12,194,12,47).

%--- Job 13
job(13).
operation(13,195,5,45).
operation(13,196,3,30).
operation(13,197,0,57).
operation(13,198,6,68).
operation(13,199,1,61).
operation(13,200,2,34).
operation(13,201,4,2).
operation(13,202,7,57).
operation(13,203,13,96).
operation(13,204,9,10).
operation(13,205,12,85).
operation(13,206,14,42).
operation(13,207,10,93).
operation(13,208,8,89).
operation(13,209,11,43).

%--- Job 14
job(14).
operation(14,210,6,49).
operation(14,211,4,53).
operation(14,212,1,51).
operation(14,213,2,4).
operation(14,214,0,17).
operation(14,215,5,21).
operation(14,216,3,31).
operation(14,217,10,45).
operation(14,218,13,45).
operation(14,219,9,63).
operation(14,220,11,21).
operation(14,221,8,4).
operation(14,222,7,23).
operation(14,223,14,90).
operation(14,224,12,1).

%--- Job 15
job(15).
operation(15,225,6,68).
operation(15,226,5,18).
operation(15,227,0,87).
operation(15,228,3,6).
operation(15,229,4,13).
operation(15,230,2,9).
operation(15,231,1,40).
operation(15,232,8,83).
operation(15,233,7,95).
operation(15,234,12,27).
operation(15,235,10,94).
operation(15,236,14,68).
operation(15,237,11,22).
operation(15,238,13,28).
operation(15,239,9,66).

%--- Job 16
job(16).
operation(16,240,2,80).
operation(16,241,6,14).
operation(16,242,0,67).
operation(16,243,5,15).
operation(16,244,1,14).
operation(16,245,3,97).
operation(16,246,4,23).
operation(16,247,8,45).
operation(16,248,10,1).
operation(16,249,11,5).
operation(16,250,14,87).
operation(16,251,7,34).
operation(16,252,12,12).
operation(16,253,9,98).
operation(16,254,13,35).

%--- Job 17
job(17).
operation(17,255,4,33).
operation(17,256,2,20).
operation(17,257,3,74).
operation(17,258,6,20).
operation(17,259,5,3).
operation(17,260,0,90).
operation(17,261,1,37).
operation(17,262,13,56).
operation(17,263,12,38).
operation(17,264,8,7).
operation(17,265,14,84).
operation(17,266,9,100).
operation(17,267,11,41).
operation(17,268,10,6).
operation(17,269,7,97).

%--- Job 18
job(18).
operation(18,270,6,47).
operation(18,271,4,63).
operation(18,272,3,1).
operation(18,273,0,28).
operation(18,274,2,99).
operation(18,275,1,41).
operation(18,276,5,45).
operation(18,277,14,60).
operation(18,278,13,2).
operation(18,279,7,25).
operation(18,280,8,59).
operation(18,281,9,39).
operation(18,282,10,76).
operation(18,283,11,89).
operation(18,284,12,5).

%--- Job 19
job(19).
operation(19,285,6,67).
operation(19,286,2,46).
operation(19,287,3,25).
operation(19,288,1,2).
operation(19,289,5,22).
operation(19,290,4,8).
operation(19,291,0,22).
operation(19,292,13,64).
operation(19,293,7,82).
operation(19,294,12,99).
operation(19,295,11,79).
operation(19,296,10,87).
operation(19,297,8,71).
operation(19,298,9,24).
operation(19,299,14,19).

