% ========= Metadata =========
   meta(name,swv06).
   meta(num_jobs,20).
   meta(num_machines,15).
   meta(num_operations,300).
   meta(optimum,None).
   meta(upper_bound,1671).
   meta(lower_bound,1630).
% ==========================


machine(0..15).

%--- Job 0
job(0).
operation(0,0,1,16).
operation(0,1,6,58).
operation(0,2,2,22).
operation(0,3,4,24).
operation(0,4,5,53).
operation(0,5,3,9).
operation(0,6,0,57).
operation(0,7,10,63).
operation(0,8,8,92).
operation(0,9,12,43).
operation(0,10,7,41).
operation(0,11,13,26).
operation(0,12,14,20).
operation(0,13,9,44).
operation(0,14,11,93).

%--- Job 1
job(1).
operation(1,15,2,89).
operation(1,16,1,94).
operation(1,17,0,86).
operation(1,18,3,13).
operation(1,19,6,54).
operation(1,20,4,41).
operation(1,21,5,55).
operation(1,22,7,98).
operation(1,23,13,38).
operation(1,24,14,80).
operation(1,25,9,1).
operation(1,26,11,100).
operation(1,27,12,90).
operation(1,28,10,63).
operation(1,29,8,14).

%--- Job 2
job(2).
operation(2,30,1,26).
operation(2,31,6,96).
operation(2,32,3,32).
operation(2,33,4,75).
operation(2,34,5,9).
operation(2,35,0,57).
operation(2,36,2,39).
operation(2,37,12,54).
operation(2,38,14,28).
operation(2,39,10,8).
operation(2,40,11,30).
operation(2,41,13,57).
operation(2,42,9,75).
operation(2,43,7,9).
operation(2,44,8,41).

%--- Job 3
job(3).
operation(3,45,3,37).
operation(3,46,2,36).
operation(3,47,5,63).
operation(3,48,0,24).
operation(3,49,6,71).
operation(3,50,1,97).
operation(3,51,4,74).
operation(3,52,14,19).
operation(3,53,12,45).
operation(3,54,8,24).
operation(3,55,11,71).
operation(3,56,13,53).
operation(3,57,10,61).
operation(3,58,9,6).
operation(3,59,7,32).

%--- Job 4
job(4).
operation(4,60,3,57).
operation(4,61,0,55).
operation(4,62,1,21).
operation(4,63,5,84).
operation(4,64,2,23).
operation(4,65,6,79).
operation(4,66,4,90).
operation(4,67,11,8).
operation(4,68,14,59).
operation(4,69,10,99).
operation(4,70,9,41).
operation(4,71,12,68).
operation(4,72,8,14).
operation(4,73,13,4).
operation(4,74,7,55).

%--- Job 5
job(5).
operation(5,75,4,10).
operation(5,76,2,81).
operation(5,77,1,13).
operation(5,78,3,78).
operation(5,79,0,78).
operation(5,80,5,10).
operation(5,81,6,48).
operation(5,82,9,37).
operation(5,83,11,21).
operation(5,84,7,88).
operation(5,85,12,75).
operation(5,86,14,11).
operation(5,87,13,55).
operation(5,88,10,93).
operation(5,89,8,51).

%--- Job 6
job(6).
operation(6,90,6,100).
operation(6,91,2,52).
operation(6,92,3,54).
operation(6,93,1,37).
operation(6,94,5,26).
operation(6,95,4,74).
operation(6,96,0,87).
operation(6,97,8,13).
operation(6,98,12,88).
operation(6,99,10,94).
operation(6,100,14,73).
operation(6,101,7,55).
operation(6,102,11,68).
operation(6,103,9,50).
operation(6,104,13,88).

%--- Job 7
job(7).
operation(7,105,4,47).
operation(7,106,5,70).
operation(7,107,6,7).
operation(7,108,2,72).
operation(7,109,0,62).
operation(7,110,3,30).
operation(7,111,1,95).
operation(7,112,10,18).
operation(7,113,9,65).
operation(7,114,7,69).
operation(7,115,13,89).
operation(7,116,8,89).
operation(7,117,14,64).
operation(7,118,12,81).
operation(7,119,11,25).

%--- Job 8
job(8).
operation(8,120,6,1).
operation(8,121,1,10).
operation(8,122,0,72).
operation(8,123,3,59).
operation(8,124,4,92).
operation(8,125,5,53).
operation(8,126,2,89).
operation(8,127,14,52).
operation(8,128,7,48).
operation(8,129,8,8).
operation(8,130,13,69).
operation(8,131,10,49).
operation(8,132,9,26).
operation(8,133,12,76).
operation(8,134,11,97).

%--- Job 9
job(9).
operation(9,135,6,85).
operation(9,136,2,47).
operation(9,137,4,45).
operation(9,138,1,99).
operation(9,139,0,39).
operation(9,140,5,32).
operation(9,141,3,87).
operation(9,142,10,56).
operation(9,143,8,98).
operation(9,144,11,13).
operation(9,145,7,96).
operation(9,146,12,71).
operation(9,147,14,95).
operation(9,148,9,11).
operation(9,149,13,78).

%--- Job 10
job(10).
operation(10,150,0,17).
operation(10,151,2,21).
operation(10,152,3,87).
operation(10,153,6,41).
operation(10,154,5,41).
operation(10,155,4,31).
operation(10,156,1,96).
operation(10,157,8,17).
operation(10,158,11,95).
operation(10,159,13,29).
operation(10,160,14,3).
operation(10,161,10,71).
operation(10,162,7,64).
operation(10,163,9,97).
operation(10,164,12,31).

%--- Job 11
job(11).
operation(11,165,6,9).
operation(11,166,0,87).
operation(11,167,4,34).
operation(11,168,1,62).
operation(11,169,3,56).
operation(11,170,5,66).
operation(11,171,2,95).
operation(11,172,9,56).
operation(11,173,14,42).
operation(11,174,8,86).
operation(11,175,7,68).
operation(11,176,12,82).
operation(11,177,10,82).
operation(11,178,13,52).
operation(11,179,11,97).

%--- Job 12
job(12).
operation(12,180,3,86).
operation(12,181,1,37).
operation(12,182,2,49).
operation(12,183,0,2).
operation(12,184,6,30).
operation(12,185,5,63).
operation(12,186,4,4).
operation(12,187,14,47).
operation(12,188,8,84).
operation(12,189,10,5).
operation(12,190,13,13).
operation(12,191,9,39).
operation(12,192,12,18).
operation(12,193,7,76).
operation(12,194,11,63).

%--- Job 13
job(13).
operation(13,195,0,29).
operation(13,196,6,34).
operation(13,197,1,53).
operation(13,198,3,7).
operation(13,199,5,19).
operation(13,200,4,26).
operation(13,201,2,63).
operation(13,202,12,22).
operation(13,203,10,98).
operation(13,204,13,77).
operation(13,205,14,11).
operation(13,206,7,87).
operation(13,207,9,5).
operation(13,208,11,44).
operation(13,209,8,42).

%--- Job 14
job(14).
operation(14,210,6,44).
operation(14,211,4,91).
operation(14,212,1,91).
operation(14,213,2,58).
operation(14,214,0,77).
operation(14,215,3,51).
operation(14,216,5,14).
operation(14,217,13,1).
operation(14,218,9,17).
operation(14,219,7,55).
operation(14,220,12,40).
operation(14,221,8,95).
operation(14,222,14,31).
operation(14,223,11,54).
operation(14,224,10,37).

%--- Job 15
job(15).
operation(15,225,5,59).
operation(15,226,4,47).
operation(15,227,1,56).
operation(15,228,6,39).
operation(15,229,2,7).
operation(15,230,0,43).
operation(15,231,3,39).
operation(15,232,13,75).
operation(15,233,10,43).
operation(15,234,12,32).
operation(15,235,9,6).
operation(15,236,11,93).
operation(15,237,7,69).
operation(15,238,8,47).
operation(15,239,14,93).

%--- Job 16
job(16).
operation(16,240,4,24).
operation(16,241,1,30).
operation(16,242,3,97).
operation(16,243,6,17).
operation(16,244,0,7).
operation(16,245,2,55).
operation(16,246,5,8).
operation(16,247,7,70).
operation(16,248,10,87).
operation(16,249,8,29).
operation(16,250,12,20).
operation(16,251,13,29).
operation(16,252,11,51).
operation(16,253,9,14).
operation(16,254,14,32).

%--- Job 17
job(17).
operation(17,255,2,29).
operation(17,256,4,99).
operation(17,257,3,17).
operation(17,258,0,96).
operation(17,259,1,50).
operation(17,260,5,67).
operation(17,261,6,91).
operation(17,262,10,91).
operation(17,263,13,14).
operation(17,264,12,14).
operation(17,265,7,19).
operation(17,266,8,36).
operation(17,267,11,11).
operation(17,268,14,83).
operation(17,269,9,6).

%--- Job 18
job(18).
operation(18,270,0,7).
operation(18,271,6,60).
operation(18,272,3,31).
operation(18,273,5,76).
operation(18,274,1,23).
operation(18,275,2,83).
operation(18,276,4,30).
operation(18,277,8,73).
operation(18,278,14,76).
operation(18,279,11,17).
operation(18,280,10,53).
operation(18,281,13,9).
operation(18,282,12,72).
operation(18,283,7,89).
operation(18,284,9,24).

%--- Job 19
job(19).
operation(19,285,3,63).
operation(19,286,0,89).
operation(19,287,2,2).
operation(19,288,1,46).
operation(19,289,6,86).
operation(19,290,5,74).
operation(19,291,4,1).
operation(19,292,7,34).
operation(19,293,9,30).
operation(19,294,12,19).
operation(19,295,13,48).
operation(19,296,11,75).
operation(19,297,8,72).
operation(19,298,14,47).
operation(19,299,10,58).

