% ========= Metadata =========
   meta(name,swv01).
   meta(num_jobs,20).
   meta(num_machines,10).
   meta(num_operations,200).
   meta(optimum,1407).
   meta(upper_bound,1407).
   meta(lower_bound,1407).
% ==========================


machine(0..10).

%--- Job 0
job(0).
operation(0,0,3,19).
operation(0,1,2,27).
operation(0,2,1,39).
operation(0,3,4,13).
operation(0,4,0,25).
operation(0,5,8,37).
operation(0,6,9,40).
operation(0,7,5,54).
operation(0,8,7,74).
operation(0,9,6,93).

%--- Job 1
job(1).
operation(1,10,2,69).
operation(1,11,0,30).
operation(1,12,4,1).
operation(1,13,3,4).
operation(1,14,1,64).
operation(1,15,7,71).
operation(1,16,5,2).
operation(1,17,9,84).
operation(1,18,6,31).
operation(1,19,8,8).

%--- Job 2
job(2).
operation(2,20,4,79).
operation(2,21,3,80).
operation(2,22,0,86).
operation(2,23,2,55).
operation(2,24,1,54).
operation(2,25,8,81).
operation(2,26,6,72).
operation(2,27,7,86).
operation(2,28,5,59).
operation(2,29,9,75).

%--- Job 3
job(3).
operation(3,30,2,76).
operation(3,31,3,15).
operation(3,32,1,26).
operation(3,33,0,17).
operation(3,34,4,30).
operation(3,35,8,44).
operation(3,36,7,91).
operation(3,37,6,83).
operation(3,38,5,52).
operation(3,39,9,68).

%--- Job 4
job(4).
operation(4,40,4,73).
operation(4,41,3,87).
operation(4,42,1,74).
operation(4,43,0,39).
operation(4,44,2,98).
operation(4,45,9,100).
operation(4,46,5,43).
operation(4,47,8,17).
operation(4,48,7,7).
operation(4,49,6,77).

%--- Job 5
job(5).
operation(5,50,1,63).
operation(5,51,0,49).
operation(5,52,2,16).
operation(5,53,3,55).
operation(5,54,4,9).
operation(5,55,9,73).
operation(5,56,5,61).
operation(5,57,8,34).
operation(5,58,6,82).
operation(5,59,7,46).

%--- Job 6
job(6).
operation(6,60,0,87).
operation(6,61,1,71).
operation(6,62,4,43).
operation(6,63,3,80).
operation(6,64,2,39).
operation(6,65,7,70).
operation(6,66,8,18).
operation(6,67,6,41).
operation(6,68,9,79).
operation(6,69,5,44).

%--- Job 7
job(7).
operation(7,70,4,70).
operation(7,71,2,22).
operation(7,72,0,73).
operation(7,73,3,62).
operation(7,74,1,64).
operation(7,75,5,25).
operation(7,76,8,19).
operation(7,77,6,69).
operation(7,78,9,41).
operation(7,79,7,28).

%--- Job 8
job(8).
operation(8,80,3,16).
operation(8,81,0,84).
operation(8,82,1,58).
operation(8,83,4,7).
operation(8,84,2,9).
operation(8,85,5,8).
operation(8,86,6,10).
operation(8,87,7,17).
operation(8,88,8,42).
operation(8,89,9,65).

%--- Job 9
job(9).
operation(9,90,3,8).
operation(9,91,0,10).
operation(9,92,1,3).
operation(9,93,4,41).
operation(9,94,2,3).
operation(9,95,7,40).
operation(9,96,8,56).
operation(9,97,5,53).
operation(9,98,9,96).
operation(9,99,6,13).

%--- Job 10
job(10).
operation(10,100,4,62).
operation(10,101,1,60).
operation(10,102,3,64).
operation(10,103,2,12).
operation(10,104,0,39).
operation(10,105,5,2).
operation(10,106,7,64).
operation(10,107,6,87).
operation(10,108,9,21).
operation(10,109,8,60).

%--- Job 11
job(11).
operation(11,110,2,66).
operation(11,111,1,71).
operation(11,112,3,23).
operation(11,113,4,75).
operation(11,114,0,78).
operation(11,115,7,74).
operation(11,116,6,35).
operation(11,117,9,24).
operation(11,118,8,23).
operation(11,119,5,50).

%--- Job 12
job(12).
operation(12,120,1,5).
operation(12,121,3,92).
operation(12,122,4,6).
operation(12,123,0,69).
operation(12,124,2,80).
operation(12,125,7,13).
operation(12,126,5,17).
operation(12,127,9,89).
operation(12,128,6,80).
operation(12,129,8,47).

%--- Job 13
job(13).
operation(13,130,0,82).
operation(13,131,3,84).
operation(13,132,1,24).
operation(13,133,2,47).
operation(13,134,4,93).
operation(13,135,7,85).
operation(13,136,5,34).
operation(13,137,6,73).
operation(13,138,8,28).
operation(13,139,9,91).

%--- Job 14
job(14).
operation(14,140,4,55).
operation(14,141,0,57).
operation(14,142,3,63).
operation(14,143,2,24).
operation(14,144,1,40).
operation(14,145,7,30).
operation(14,146,6,37).
operation(14,147,5,99).
operation(14,148,8,88).
operation(14,149,9,41).

%--- Job 15
job(15).
operation(15,150,1,75).
operation(15,151,2,47).
operation(15,152,3,68).
operation(15,153,0,7).
operation(15,154,4,78).
operation(15,155,7,80).
operation(15,156,6,2).
operation(15,157,9,23).
operation(15,158,8,49).
operation(15,159,5,50).

%--- Job 16
job(16).
operation(16,160,0,91).
operation(16,161,4,25).
operation(16,162,2,10).
operation(16,163,1,21).
operation(16,164,3,94).
operation(16,165,8,6).
operation(16,166,7,59).
operation(16,167,5,84).
operation(16,168,9,75).
operation(16,169,6,70).

%--- Job 17
job(17).
operation(17,170,2,85).
operation(17,171,1,31).
operation(17,172,0,94).
operation(17,173,4,94).
operation(17,174,3,11).
operation(17,175,5,21).
operation(17,176,9,7).
operation(17,177,6,61).
operation(17,178,8,50).
operation(17,179,7,93).

%--- Job 18
job(18).
operation(18,180,1,27).
operation(18,181,0,77).
operation(18,182,4,13).
operation(18,183,2,30).
operation(18,184,3,2).
operation(18,185,5,88).
operation(18,186,7,4).
operation(18,187,9,39).
operation(18,188,6,53).
operation(18,189,8,54).

%--- Job 19
job(19).
operation(19,190,1,34).
operation(19,191,2,12).
operation(19,192,3,31).
operation(19,193,0,24).
operation(19,194,4,24).
operation(19,195,7,16).
operation(19,196,5,6).
operation(19,197,9,88).
operation(19,198,8,81).
operation(19,199,6,11).

