% ========= Metadata =========
   meta(name,swv07).
   meta(num_jobs,20).
   meta(num_machines,15).
   meta(num_operations,300).
   meta(optimum,None).
   meta(upper_bound,1594).
   meta(lower_bound,1513).
% ==========================


machine(0..15).

%--- Job 0
job(0).
operation(0,0,3,92).
operation(0,1,1,49).
operation(0,2,2,93).
operation(0,3,6,48).
operation(0,4,0,1).
operation(0,5,4,52).
operation(0,6,5,57).
operation(0,7,8,16).
operation(0,8,12,6).
operation(0,9,13,6).
operation(0,10,11,19).
operation(0,11,9,96).
operation(0,12,7,27).
operation(0,13,14,76).
operation(0,14,10,60).

%--- Job 1
job(1).
operation(1,15,5,4).
operation(1,16,3,96).
operation(1,17,6,52).
operation(1,18,1,87).
operation(1,19,2,94).
operation(1,20,4,83).
operation(1,21,0,9).
operation(1,22,11,85).
operation(1,23,10,47).
operation(1,24,8,63).
operation(1,25,9,31).
operation(1,26,13,26).
operation(1,27,12,46).
operation(1,28,7,49).
operation(1,29,14,48).

%--- Job 2
job(2).
operation(2,30,1,34).
operation(2,31,6,34).
operation(2,32,4,37).
operation(2,33,2,82).
operation(2,34,0,25).
operation(2,35,5,43).
operation(2,36,3,11).
operation(2,37,9,71).
operation(2,38,14,55).
operation(2,39,7,34).
operation(2,40,11,77).
operation(2,41,12,20).
operation(2,42,8,89).
operation(2,43,10,23).
operation(2,44,13,32).

%--- Job 3
job(3).
operation(3,45,3,49).
operation(3,46,5,12).
operation(3,47,6,52).
operation(3,48,2,76).
operation(3,49,0,64).
operation(3,50,1,51).
operation(3,51,4,84).
operation(3,52,10,42).
operation(3,53,12,5).
operation(3,54,7,45).
operation(3,55,8,20).
operation(3,56,11,93).
operation(3,57,14,48).
operation(3,58,13,75).
operation(3,59,9,100).

%--- Job 4
job(4).
operation(4,60,2,35).
operation(4,61,1,1).
operation(4,62,3,15).
operation(4,63,6,49).
operation(4,64,5,78).
operation(4,65,4,80).
operation(4,66,0,99).
operation(4,67,9,88).
operation(4,68,7,24).
operation(4,69,11,20).
operation(4,70,10,100).
operation(4,71,8,28).
operation(4,72,14,71).
operation(4,73,13,1).
operation(4,74,12,7).

%--- Job 5
job(5).
operation(5,75,3,69).
operation(5,76,6,24).
operation(5,77,5,21).
operation(5,78,4,3).
operation(5,79,1,28).
operation(5,80,2,8).
operation(5,81,0,42).
operation(5,82,10,33).
operation(5,83,11,40).
operation(5,84,9,50).
operation(5,85,8,8).
operation(5,86,13,5).
operation(5,87,12,13).
operation(5,88,7,42).
operation(5,89,14,73).

%--- Job 6
job(6).
operation(6,90,0,83).
operation(6,91,4,15).
operation(6,92,2,62).
operation(6,93,6,27).
operation(6,94,5,5).
operation(6,95,1,65).
operation(6,96,3,100).
operation(6,97,14,65).
operation(6,98,10,82).
operation(6,99,7,89).
operation(6,100,13,81).
operation(6,101,9,92).
operation(6,102,8,38).
operation(6,103,11,47).
operation(6,104,12,96).

%--- Job 7
job(7).
operation(7,105,6,98).
operation(7,106,4,24).
operation(7,107,2,75).
operation(7,108,0,57).
operation(7,109,1,93).
operation(7,110,3,74).
operation(7,111,5,10).
operation(7,112,7,44).
operation(7,113,13,59).
operation(7,114,11,51).
operation(7,115,12,82).
operation(7,116,14,65).
operation(7,117,10,8).
operation(7,118,8,12).
operation(7,119,9,24).

%--- Job 8
job(8).
operation(8,120,4,55).
operation(8,121,0,44).
operation(8,122,3,47).
operation(8,123,5,75).
operation(8,124,2,81).
operation(8,125,6,30).
operation(8,126,1,42).
operation(8,127,10,100).
operation(8,128,8,81).
operation(8,129,7,29).
operation(8,130,13,31).
operation(8,131,9,47).
operation(8,132,11,34).
operation(8,133,12,77).
operation(8,134,14,92).

%--- Job 9
job(9).
operation(9,135,2,18).
operation(9,136,5,42).
operation(9,137,0,37).
operation(9,138,4,1).
operation(9,139,3,67).
operation(9,140,6,20).
operation(9,141,1,91).
operation(9,142,8,21).
operation(9,143,14,57).
operation(9,144,12,100).
operation(9,145,10,100).
operation(9,146,11,59).
operation(9,147,13,77).
operation(9,148,9,21).
operation(9,149,7,98).

%--- Job 10
job(10).
operation(10,150,3,42).
operation(10,151,1,16).
operation(10,152,4,19).
operation(10,153,6,70).
operation(10,154,2,7).
operation(10,155,0,74).
operation(10,156,5,7).
operation(10,157,12,50).
operation(10,158,9,74).
operation(10,159,8,46).
operation(10,160,14,88).
operation(10,161,13,71).
operation(10,162,10,42).
operation(10,163,7,34).
operation(10,164,11,60).

%--- Job 11
job(11).
operation(11,165,6,12).
operation(11,166,4,45).
operation(11,167,2,7).
operation(11,168,0,15).
operation(11,169,1,22).
operation(11,170,3,31).
operation(11,171,5,70).
operation(11,172,13,88).
operation(11,173,9,46).
operation(11,174,8,44).
operation(11,175,14,45).
operation(11,176,12,87).
operation(11,177,11,5).
operation(11,178,7,99).
operation(11,179,10,70).

%--- Job 12
job(12).
operation(12,180,4,51).
operation(12,181,5,39).
operation(12,182,0,50).
operation(12,183,2,9).
operation(12,184,3,23).
operation(12,185,6,28).
operation(12,186,1,49).
operation(12,187,13,5).
operation(12,188,12,17).
operation(12,189,14,40).
operation(12,190,10,30).
operation(12,191,11,62).
operation(12,192,8,65).
operation(12,193,7,84).
operation(12,194,9,12).

%--- Job 13
job(13).
operation(13,195,6,92).
operation(13,196,0,67).
operation(13,197,5,85).
operation(13,198,1,88).
operation(13,199,3,18).
operation(13,200,4,13).
operation(13,201,2,70).
operation(13,202,7,69).
operation(13,203,14,10).
operation(13,204,13,52).
operation(13,205,8,42).
operation(13,206,11,82).
operation(13,207,10,19).
operation(13,208,12,21).
operation(13,209,9,5).

%--- Job 14
job(14).
operation(14,210,4,34).
operation(14,211,0,60).
operation(14,212,1,52).
operation(14,213,5,70).
operation(14,214,2,51).
operation(14,215,6,2).
operation(14,216,3,43).
operation(14,217,10,75).
operation(14,218,11,45).
operation(14,219,8,53).
operation(14,220,12,96).
operation(14,221,13,1).
operation(14,222,14,44).
operation(14,223,7,66).
operation(14,224,9,19).

%--- Job 15
job(15).
operation(15,225,6,31).
operation(15,226,1,44).
operation(15,227,0,84).
operation(15,228,3,16).
operation(15,229,4,10).
operation(15,230,2,4).
operation(15,231,5,48).
operation(15,232,13,67).
operation(15,233,14,11).
operation(15,234,12,21).
operation(15,235,8,78).
operation(15,236,7,42).
operation(15,237,11,44).
operation(15,238,9,37).
operation(15,239,10,35).

%--- Job 16
job(16).
operation(16,240,1,20).
operation(16,241,4,40).
operation(16,242,3,37).
operation(16,243,2,68).
operation(16,244,6,42).
operation(16,245,0,11).
operation(16,246,5,6).
operation(16,247,10,44).
operation(16,248,11,43).
operation(16,249,12,17).
operation(16,250,14,3).
operation(16,251,7,77).
operation(16,252,13,100).
operation(16,253,9,82).
operation(16,254,8,5).

%--- Job 17
job(17).
operation(17,255,5,14).
operation(17,256,0,5).
operation(17,257,3,40).
operation(17,258,1,70).
operation(17,259,4,63).
operation(17,260,2,59).
operation(17,261,6,42).
operation(17,262,9,74).
operation(17,263,13,32).
operation(17,264,7,50).
operation(17,265,10,21).
operation(17,266,14,29).
operation(17,267,12,83).
operation(17,268,11,64).
operation(17,269,8,45).

%--- Job 18
job(18).
operation(18,270,6,70).
operation(18,271,0,28).
operation(18,272,3,79).
operation(18,273,4,25).
operation(18,274,5,98).
operation(18,275,2,24).
operation(18,276,1,54).
operation(18,277,12,65).
operation(18,278,13,93).
operation(18,279,10,74).
operation(18,280,7,22).
operation(18,281,9,73).
operation(18,282,11,75).
operation(18,283,8,69).
operation(18,284,14,9).

%--- Job 19
job(19).
operation(19,285,5,100).
operation(19,286,2,46).
operation(19,287,4,69).
operation(19,288,3,41).
operation(19,289,1,3).
operation(19,290,6,18).
operation(19,291,0,41).
operation(19,292,8,94).
operation(19,293,11,97).
operation(19,294,12,30).
operation(19,295,14,96).
operation(19,296,7,7).
operation(19,297,9,86).
operation(19,298,13,83).
operation(19,299,10,90).

