% ========= Metadata =========
   meta(name,swv02).
   meta(num_jobs,20).
   meta(num_machines,10).
   meta(num_operations,200).
   meta(optimum,1475).
   meta(upper_bound,1475).
   meta(lower_bound,1475).
% ==========================


machine(0..10).

%--- Job 0
job(0).
operation(0,0,2,16).
operation(0,1,1,58).
operation(0,2,0,22).
operation(0,3,4,24).
operation(0,4,3,53).
operation(0,5,8,9).
operation(0,6,9,57).
operation(0,7,7,63).
operation(0,8,5,92).
operation(0,9,6,43).

%--- Job 1
job(1).
operation(1,10,3,6).
operation(1,11,1,48).
operation(1,12,4,14).
operation(1,13,0,66).
operation(1,14,2,24).
operation(1,15,7,2).
operation(1,16,9,85).
operation(1,17,6,73).
operation(1,18,8,19).
operation(1,19,5,99).

%--- Job 2
job(2).
operation(2,20,4,100).
operation(2,21,2,90).
operation(2,22,0,63).
operation(2,23,1,14).
operation(2,24,3,31).
operation(2,25,5,27).
operation(2,26,9,15).
operation(2,27,8,1).
operation(2,28,6,51).
operation(2,29,7,33).

%--- Job 3
job(3).
operation(3,30,2,98).
operation(3,31,3,84).
operation(3,32,4,52).
operation(3,33,0,12).
operation(3,34,1,96).
operation(3,35,9,60).
operation(3,36,6,74).
operation(3,37,8,93).
operation(3,38,5,45).
operation(3,39,7,49).

%--- Job 4
job(4).
operation(4,40,4,39).
operation(4,41,0,54).
operation(4,42,2,28).
operation(4,43,3,8).
operation(4,44,1,30).
operation(4,45,8,57).
operation(4,46,6,75).
operation(4,47,5,9).
operation(4,48,7,41).
operation(4,49,9,19).

%--- Job 5
job(5).
operation(5,50,3,94).
operation(5,51,0,8).
operation(5,52,2,89).
operation(5,53,1,13).
operation(5,54,4,37).
operation(5,55,8,36).
operation(5,56,6,63).
operation(5,57,9,24).
operation(5,58,5,71).
operation(5,59,7,97).

%--- Job 6
job(6).
operation(6,60,3,90).
operation(6,61,2,69).
operation(6,62,1,25).
operation(6,63,4,15).
operation(6,64,0,65).
operation(6,65,7,52).
operation(6,66,6,56).
operation(6,67,9,91).
operation(6,68,8,83).
operation(6,69,5,86).

%--- Job 7
job(7).
operation(7,70,3,59).
operation(7,71,1,99).
operation(7,72,4,41).
operation(7,73,0,68).
operation(7,74,2,14).
operation(7,75,7,4).
operation(7,76,9,55).
operation(7,77,6,48).
operation(7,78,8,13).
operation(7,79,5,15).

%--- Job 8
job(8).
operation(8,80,4,36).
operation(8,81,2,17).
operation(8,82,1,51).
operation(8,83,0,16).
operation(8,84,3,54).
operation(8,85,8,45).
operation(8,86,5,50).
operation(8,87,7,98).
operation(8,88,6,68).
operation(8,89,9,82).

%--- Job 9
job(9).
operation(9,90,1,75).
operation(9,91,0,11).
operation(9,92,4,55).
operation(9,93,2,93).
operation(9,94,3,51).
operation(9,95,6,61).
operation(9,96,9,40).
operation(9,97,7,19).
operation(9,98,8,24).
operation(9,99,5,55).

%--- Job 10
job(10).
operation(10,100,4,56).
operation(10,101,0,73).
operation(10,102,3,59).
operation(10,103,2,38).
operation(10,104,1,51).
operation(10,105,6,99).
operation(10,106,8,29).
operation(10,107,9,53).
operation(10,108,5,7).
operation(10,109,7,72).

%--- Job 11
job(11).
operation(11,110,3,68).
operation(11,111,4,50).
operation(11,112,1,88).
operation(11,113,2,88).
operation(11,114,0,33).
operation(11,115,5,47).
operation(11,116,8,52).
operation(11,117,6,26).
operation(11,118,9,74).
operation(11,119,7,68).

%--- Job 12
job(12).
operation(12,120,2,3).
operation(12,121,3,42).
operation(12,122,0,45).
operation(12,123,1,57).
operation(12,124,4,28).
operation(12,125,5,14).
operation(12,126,8,22).
operation(12,127,9,31).
operation(12,128,6,44).
operation(12,129,7,38).

%--- Job 13
job(13).
operation(13,130,3,89).
operation(13,131,0,73).
operation(13,132,4,12).
operation(13,133,1,9).
operation(13,134,2,49).
operation(13,135,5,11).
operation(13,136,8,15).
operation(13,137,7,41).
operation(13,138,9,37).
operation(13,139,6,10).

%--- Job 14
job(14).
operation(14,140,3,76).
operation(14,141,2,97).
operation(14,142,4,100).
operation(14,143,1,92).
operation(14,144,0,25).
operation(14,145,5,8).
operation(14,146,9,92).
operation(14,147,7,51).
operation(14,148,6,58).
operation(14,149,8,65).

%--- Job 15
job(15).
operation(15,150,4,50).
operation(15,151,0,54).
operation(15,152,3,85).
operation(15,153,1,47).
operation(15,154,2,45).
operation(15,155,6,99).
operation(15,156,9,39).
operation(15,157,5,32).
operation(15,158,8,87).
operation(15,159,7,56).

%--- Job 16
job(16).
operation(16,160,0,70).
operation(16,161,2,58).
operation(16,162,3,33).
operation(16,163,1,85).
operation(16,164,4,25).
operation(16,165,8,5).
operation(16,166,7,65).
operation(16,167,9,20).
operation(16,168,6,52).
operation(16,169,5,44).

%--- Job 17
job(17).
operation(17,170,1,22).
operation(17,171,3,45).
operation(17,172,4,60).
operation(17,173,0,66).
operation(17,174,2,5).
operation(17,175,7,61).
operation(17,176,6,73).
operation(17,177,9,60).
operation(17,178,5,14).
operation(17,179,8,44).

%--- Job 18
job(18).
operation(18,180,4,64).
operation(18,181,0,97).
operation(18,182,2,31).
operation(18,183,1,4).
operation(18,184,3,43).
operation(18,185,9,47).
operation(18,186,7,93).
operation(18,187,6,100).
operation(18,188,5,10).
operation(18,189,8,51).

%--- Job 19
job(19).
operation(19,190,3,9).
operation(19,191,4,87).
operation(19,192,2,34).
operation(19,193,0,62).
operation(19,194,1,56).
operation(19,195,5,66).
operation(19,196,8,95).
operation(19,197,7,56).
operation(19,198,9,42).
operation(19,199,6,86).

