% ========= Metadata =========
   meta(name,swv15).
   meta(num_jobs,50).
   meta(num_machines,10).
   meta(num_operations,500).
   meta(optimum,2885).
   meta(upper_bound,2885).
   meta(lower_bound,2885).
% ==========================


machine(0..10).

%--- Job 0
job(0).
operation(0,0,2,93).
operation(0,1,4,40).
operation(0,2,0,1).
operation(0,3,3,77).
operation(0,4,1,77).
operation(0,5,5,16).
operation(0,6,9,74).
operation(0,7,8,11).
operation(0,8,6,51).
operation(0,9,7,92).

%--- Job 1
job(1).
operation(1,10,0,92).
operation(1,11,4,80).
operation(1,12,1,76).
operation(1,13,3,59).
operation(1,14,2,70).
operation(1,15,5,86).
operation(1,16,9,17).
operation(1,17,6,78).
operation(1,18,7,30).
operation(1,19,8,93).

%--- Job 2
job(2).
operation(2,20,1,44).
operation(2,21,2,92).
operation(2,22,3,96).
operation(2,23,4,77).
operation(2,24,0,53).
operation(2,25,9,10).
operation(2,26,7,49).
operation(2,27,5,84).
operation(2,28,8,59).
operation(2,29,6,14).

%--- Job 3
job(3).
operation(3,30,1,60).
operation(3,31,2,19).
operation(3,32,3,76).
operation(3,33,0,73).
operation(3,34,4,85).
operation(3,35,7,13).
operation(3,36,8,93).
operation(3,37,5,68).
operation(3,38,9,50).
operation(3,39,6,78).

%--- Job 4
job(4).
operation(4,40,2,20).
operation(4,41,0,24).
operation(4,42,3,41).
operation(4,43,1,2).
operation(4,44,4,4).
operation(4,45,9,44).
operation(4,46,7,79).
operation(4,47,8,81).
operation(4,48,5,16).
operation(4,49,6,39).

%--- Job 5
job(5).
operation(5,50,3,41).
operation(5,51,2,35).
operation(5,52,1,32).
operation(5,53,4,18).
operation(5,54,0,15).
operation(5,55,8,98).
operation(5,56,6,29).
operation(5,57,5,19).
operation(5,58,7,14).
operation(5,59,9,26).

%--- Job 6
job(6).
operation(6,60,1,59).
operation(6,61,0,45).
operation(6,62,4,53).
operation(6,63,3,44).
operation(6,64,2,98).
operation(6,65,5,84).
operation(6,66,6,23).
operation(6,67,7,45).
operation(6,68,8,39).
operation(6,69,9,89).

%--- Job 7
job(7).
operation(7,70,1,30).
operation(7,71,4,51).
operation(7,72,3,25).
operation(7,73,0,51).
operation(7,74,2,84).
operation(7,75,6,60).
operation(7,76,5,45).
operation(7,77,7,89).
operation(7,78,8,25).
operation(7,79,9,97).

%--- Job 8
job(8).
operation(8,80,0,47).
operation(8,81,3,18).
operation(8,82,2,40).
operation(8,83,4,62).
operation(8,84,1,58).
operation(8,85,5,36).
operation(8,86,7,93).
operation(8,87,8,77).
operation(8,88,9,90).
operation(8,89,6,15).

%--- Job 9
job(9).
operation(9,90,3,33).
operation(9,91,1,68).
operation(9,92,0,41).
operation(9,93,4,72).
operation(9,94,2,20).
operation(9,95,6,69).
operation(9,96,7,47).
operation(9,97,5,22).
operation(9,98,9,47).
operation(9,99,8,22).

%--- Job 10
job(10).
operation(10,100,2,28).
operation(10,101,1,100).
operation(10,102,4,20).
operation(10,103,0,35).
operation(10,104,3,26).
operation(10,105,5,24).
operation(10,106,9,41).
operation(10,107,6,42).
operation(10,108,7,100).
operation(10,109,8,32).

%--- Job 11
job(11).
operation(11,110,0,65).
operation(11,111,2,12).
operation(11,112,4,53).
operation(11,113,3,93).
operation(11,114,1,40).
operation(11,115,8,18).
operation(11,116,7,23).
operation(11,117,5,60).
operation(11,118,6,89).
operation(11,119,9,53).

%--- Job 12
job(12).
operation(12,120,0,58).
operation(12,121,1,60).
operation(12,122,4,97).
operation(12,123,3,31).
operation(12,124,2,50).
operation(12,125,9,85).
operation(12,126,5,64).
operation(12,127,7,38).
operation(12,128,6,85).
operation(12,129,8,35).

%--- Job 13
job(13).
operation(13,130,3,64).
operation(13,131,0,58).
operation(13,132,1,49).
operation(13,133,2,45).
operation(13,134,4,9).
operation(13,135,8,49).
operation(13,136,6,22).
operation(13,137,5,99).
operation(13,138,9,15).
operation(13,139,7,7).

%--- Job 14
job(14).
operation(14,140,0,10).
operation(14,141,4,85).
operation(14,142,3,72).
operation(14,143,2,37).
operation(14,144,1,77).
operation(14,145,5,70).
operation(14,146,7,45).
operation(14,147,9,8).
operation(14,148,6,83).
operation(14,149,8,57).

%--- Job 15
job(15).
operation(15,150,4,93).
operation(15,151,0,87).
operation(15,152,1,87).
operation(15,153,2,18).
operation(15,154,3,4).
operation(15,155,8,78).
operation(15,156,5,67).
operation(15,157,9,20).
operation(15,158,6,17).
operation(15,159,7,35).

%--- Job 16
job(16).
operation(16,160,4,72).
operation(16,161,0,56).
operation(16,162,3,57).
operation(16,163,2,15).
operation(16,164,1,45).
operation(16,165,6,41).
operation(16,166,5,40).
operation(16,167,9,85).
operation(16,168,8,32).
operation(16,169,7,81).

%--- Job 17
job(17).
operation(17,170,0,36).
operation(17,171,3,63).
operation(17,172,4,79).
operation(17,173,2,32).
operation(17,174,1,5).
operation(17,175,6,25).
operation(17,176,7,86).
operation(17,177,9,91).
operation(17,178,5,21).
operation(17,179,8,35).

%--- Job 18
job(18).
operation(18,180,2,83).
operation(18,181,4,29).
operation(18,182,0,9).
operation(18,183,1,38).
operation(18,184,3,73).
operation(18,185,7,50).
operation(18,186,9,99).
operation(18,187,5,18).
operation(18,188,8,29).
operation(18,189,6,41).

%--- Job 19
job(19).
operation(19,190,0,100).
operation(19,191,3,29).
operation(19,192,2,60).
operation(19,193,4,63).
operation(19,194,1,64).
operation(19,195,8,71).
operation(19,196,6,35).
operation(19,197,5,26).
operation(19,198,9,9).
operation(19,199,7,22).

%--- Job 20
job(20).
operation(20,200,1,81).
operation(20,201,0,60).
operation(20,202,3,62).
operation(20,203,4,48).
operation(20,204,2,68).
operation(20,205,7,28).
operation(20,206,5,69).
operation(20,207,8,92).
operation(20,208,6,79).
operation(20,209,9,10).

%--- Job 21
job(21).
operation(21,210,0,40).
operation(21,211,4,80).
operation(21,212,1,41).
operation(21,213,2,10).
operation(21,214,3,68).
operation(21,215,8,28).
operation(21,216,9,51).
operation(21,217,7,33).
operation(21,218,6,82).
operation(21,219,5,25).

%--- Job 22
job(22).
operation(22,220,4,30).
operation(22,221,2,12).
operation(22,222,0,35).
operation(22,223,3,17).
operation(22,224,1,70).
operation(22,225,9,29).
operation(22,226,7,18).
operation(22,227,8,93).
operation(22,228,6,94).
operation(22,229,5,37).

%--- Job 23
job(23).
operation(23,230,1,36).
operation(23,231,2,41).
operation(23,232,3,27).
operation(23,233,4,36).
operation(23,234,0,78).
operation(23,235,7,64).
operation(23,236,6,88).
operation(23,237,5,25).
operation(23,238,9,92).
operation(23,239,8,66).

%--- Job 24
job(24).
operation(24,240,2,65).
operation(24,241,3,27).
operation(24,242,4,74).
operation(24,243,0,32).
operation(24,244,1,40).
operation(24,245,5,88).
operation(24,246,8,73).
operation(24,247,6,92).
operation(24,248,7,83).
operation(24,249,9,42).

%--- Job 25
job(25).
operation(25,250,0,48).
operation(25,251,1,85).
operation(25,252,2,92).
operation(25,253,4,95).
operation(25,254,3,61).
operation(25,255,8,72).
operation(25,256,9,76).
operation(25,257,5,58).
operation(25,258,7,11).
operation(25,259,6,89).

%--- Job 26
job(26).
operation(26,260,3,84).
operation(26,261,2,50).
operation(26,262,0,70).
operation(26,263,4,24).
operation(26,264,1,42).
operation(26,265,9,55).
operation(26,266,5,100).
operation(26,267,6,70).
operation(26,268,7,4).
operation(26,269,8,68).

%--- Job 27
job(27).
operation(27,270,0,95).
operation(27,271,4,41).
operation(27,272,2,11).
operation(27,273,3,98).
operation(27,274,1,85).
operation(27,275,5,64).
operation(27,276,6,8).
operation(27,277,7,26).
operation(27,278,8,6).
operation(27,279,9,6).

%--- Job 28
job(28).
operation(28,280,0,84).
operation(28,281,2,49).
operation(28,282,1,17).
operation(28,283,3,69).
operation(28,284,4,55).
operation(28,285,8,75).
operation(28,286,6,45).
operation(28,287,9,38).
operation(28,288,7,59).
operation(28,289,5,28).

%--- Job 29
job(29).
operation(29,290,2,48).
operation(29,291,0,29).
operation(29,292,4,1).
operation(29,293,1,64).
operation(29,294,3,41).
operation(29,295,5,23).
operation(29,296,7,64).
operation(29,297,9,31).
operation(29,298,6,56).
operation(29,299,8,12).

%--- Job 30
job(30).
operation(30,300,2,81).
operation(30,301,4,25).
operation(30,302,3,33).
operation(30,303,0,22).
operation(30,304,1,50).
operation(30,305,5,74).
operation(30,306,9,56).
operation(30,307,8,33).
operation(30,308,7,85).
operation(30,309,6,83).

%--- Job 31
job(31).
operation(31,310,1,62).
operation(31,311,4,25).
operation(31,312,0,21).
operation(31,313,2,20).
operation(31,314,3,8).
operation(31,315,6,36).
operation(31,316,9,9).
operation(31,317,5,91).
operation(31,318,8,90).
operation(31,319,7,49).

%--- Job 32
job(32).
operation(32,320,1,43).
operation(32,321,0,16).
operation(32,322,2,91).
operation(32,323,3,96).
operation(32,324,4,24).
operation(32,325,5,11).
operation(32,326,9,91).
operation(32,327,7,41).
operation(32,328,8,35).
operation(32,329,6,66).

%--- Job 33
job(33).
operation(33,330,1,91).
operation(33,331,2,20).
operation(33,332,4,44).
operation(33,333,0,42).
operation(33,334,3,87).
operation(33,335,9,57).
operation(33,336,6,15).
operation(33,337,5,38).
operation(33,338,8,42).
operation(33,339,7,89).

%--- Job 34
job(34).
operation(34,340,0,33).
operation(34,341,3,95).
operation(34,342,4,68).
operation(34,343,2,22).
operation(34,344,1,80).
operation(34,345,7,53).
operation(34,346,8,13).
operation(34,347,9,70).
operation(34,348,5,22).
operation(34,349,6,69).

%--- Job 35
job(35).
operation(35,350,0,15).
operation(35,351,3,47).
operation(35,352,1,24).
operation(35,353,2,31).
operation(35,354,4,41).
operation(35,355,8,14).
operation(35,356,9,28).
operation(35,357,7,59).
operation(35,358,5,52).
operation(35,359,6,39).

%--- Job 36
job(36).
operation(36,360,2,95).
operation(36,361,0,42).
operation(36,362,4,5).
operation(36,363,1,57).
operation(36,364,3,67).
operation(36,365,6,30).
operation(36,366,9,21).
operation(36,367,8,70).
operation(36,368,5,9).
operation(36,369,7,20).

%--- Job 37
job(37).
operation(37,370,2,54).
operation(37,371,0,15).
operation(37,372,1,20).
operation(37,373,3,64).
operation(37,374,4,83).
operation(37,375,9,40).
operation(37,376,7,6).
operation(37,377,5,89).
operation(37,378,6,91).
operation(37,379,8,48).

%--- Job 38
job(38).
operation(38,380,0,22).
operation(38,381,4,27).
operation(38,382,1,77).
operation(38,383,3,25).
operation(38,384,2,16).
operation(38,385,8,72).
operation(38,386,9,61).
operation(38,387,6,75).
operation(38,388,7,4).
operation(38,389,5,19).

%--- Job 39
job(39).
operation(39,390,3,68).
operation(39,391,1,82).
operation(39,392,2,16).
operation(39,393,0,83).
operation(39,394,4,2).
operation(39,395,7,10).
operation(39,396,8,88).
operation(39,397,5,41).
operation(39,398,9,21).
operation(39,399,6,66).

%--- Job 40
job(40).
operation(40,400,1,64).
operation(40,401,0,76).
operation(40,402,2,85).
operation(40,403,3,71).
operation(40,404,4,97).
operation(40,405,5,97).
operation(40,406,7,8).
operation(40,407,6,40).
operation(40,408,8,70).
operation(40,409,9,35).

%--- Job 41
job(41).
operation(41,410,0,94).
operation(41,411,1,45).
operation(41,412,2,94).
operation(41,413,4,84).
operation(41,414,3,44).
operation(41,415,8,41).
operation(41,416,5,30).
operation(41,417,7,47).
operation(41,418,6,19).
operation(41,419,9,22).

%--- Job 42
job(42).
operation(42,420,2,23).
operation(42,421,1,10).
operation(42,422,0,82).
operation(42,423,3,93).
operation(42,424,4,90).
operation(42,425,8,67).
operation(42,426,7,9).
operation(42,427,9,18).
operation(42,428,5,22).
operation(42,429,6,87).

%--- Job 43
job(43).
operation(43,430,0,75).
operation(43,431,2,27).
operation(43,432,4,97).
operation(43,433,3,9).
operation(43,434,1,57).
operation(43,435,9,14).
operation(43,436,5,50).
operation(43,437,7,31).
operation(43,438,8,62).
operation(43,439,6,23).

%--- Job 44
job(44).
operation(44,440,1,42).
operation(44,441,3,41).
operation(44,442,2,35).
operation(44,443,0,75).
operation(44,444,4,18).
operation(44,445,9,65).
operation(44,446,7,38).
operation(44,447,6,38).
operation(44,448,8,51).
operation(44,449,5,56).

%--- Job 45
job(45).
operation(45,450,4,72).
operation(45,451,1,63).
operation(45,452,0,33).
operation(45,453,2,27).
operation(45,454,3,41).
operation(45,455,5,52).
operation(45,456,7,42).
operation(45,457,9,10).
operation(45,458,6,14).
operation(45,459,8,71).

%--- Job 46
job(46).
operation(46,460,2,91).
operation(46,461,1,89).
operation(46,462,0,44).
operation(46,463,4,91).
operation(46,464,3,26).
operation(46,465,6,49).
operation(46,466,5,22).
operation(46,467,8,31).
operation(46,468,9,69).
operation(46,469,7,5).

%--- Job 47
job(47).
operation(47,470,3,42).
operation(47,471,1,34).
operation(47,472,0,4).
operation(47,473,4,34).
operation(47,474,2,16).
operation(47,475,6,86).
operation(47,476,7,25).
operation(47,477,8,99).
operation(47,478,5,67).
operation(47,479,9,25).

%--- Job 48
job(48).
operation(48,480,4,34).
operation(48,481,1,93).
operation(48,482,0,26).
operation(48,483,3,81).
operation(48,484,2,9).
operation(48,485,7,96).
operation(48,486,8,79).
operation(48,487,9,68).
operation(48,488,5,76).
operation(48,489,6,10).

%--- Job 49
job(49).
operation(49,490,3,19).
operation(49,491,1,47).
operation(49,492,4,13).
operation(49,493,2,98).
operation(49,494,0,32).
operation(49,495,7,12).
operation(49,496,9,45).
operation(49,497,6,52).
operation(49,498,8,49).
operation(49,499,5,34).

