% ========= Metadata =========
   meta(name,swv19).
   meta(num_jobs,50).
   meta(num_machines,10).
   meta(num_operations,500).
   meta(optimum,2843).
   meta(upper_bound,2843).
   meta(lower_bound,2843).
% ==========================


machine(0..10).

%--- Job 0
job(0).
operation(0,0,7,74).
operation(0,1,1,27).
operation(0,2,5,66).
operation(0,3,3,89).
operation(0,4,6,58).
operation(0,5,0,11).
operation(0,6,8,77).
operation(0,7,9,17).
operation(0,8,2,70).
operation(0,9,4,97).

%--- Job 1
job(1).
operation(1,10,5,10).
operation(1,11,0,11).
operation(1,12,2,38).
operation(1,13,3,60).
operation(1,14,1,50).
operation(1,15,7,35).
operation(1,16,6,94).
operation(1,17,9,52).
operation(1,18,4,2).
operation(1,19,8,20).

%--- Job 2
job(2).
operation(2,20,7,17).
operation(2,21,0,65).
operation(2,22,6,93).
operation(2,23,8,62).
operation(2,24,9,91).
operation(2,25,5,2).
operation(2,26,1,51).
operation(2,27,2,4).
operation(2,28,3,19).
operation(2,29,4,10).

%--- Job 3
job(3).
operation(3,30,4,87).
operation(3,31,3,3).
operation(3,32,9,81).
operation(3,33,0,17).
operation(3,34,6,44).
operation(3,35,2,82).
operation(3,36,7,16).
operation(3,37,5,13).
operation(3,38,8,100).
operation(3,39,1,85).

%--- Job 4
job(4).
operation(4,40,9,18).
operation(4,41,6,33).
operation(4,42,7,35).
operation(4,43,0,78).
operation(4,44,2,68).
operation(4,45,3,68).
operation(4,46,8,3).
operation(4,47,5,2).
operation(4,48,4,53).
operation(4,49,1,25).

%--- Job 5
job(5).
operation(5,50,2,36).
operation(5,51,8,41).
operation(5,52,6,60).
operation(5,53,9,43).
operation(5,54,0,66).
operation(5,55,5,34).
operation(5,56,3,24).
operation(5,57,7,11).
operation(5,58,1,5).
operation(5,59,4,55).

%--- Job 6
job(6).
operation(6,60,9,52).
operation(6,61,4,99).
operation(6,62,6,62).
operation(6,63,0,50).
operation(6,64,1,24).
operation(6,65,8,73).
operation(6,66,7,19).
operation(6,67,3,23).
operation(6,68,2,15).
operation(6,69,5,2).

%--- Job 7
job(7).
operation(7,70,4,85).
operation(7,71,9,21).
operation(7,72,3,27).
operation(7,73,7,53).
operation(7,74,0,86).
operation(7,75,1,36).
operation(7,76,6,35).
operation(7,77,5,99).
operation(7,78,8,30).
operation(7,79,2,43).

%--- Job 8
job(8).
operation(8,80,6,43).
operation(8,81,5,31).
operation(8,82,9,99).
operation(8,83,2,12).
operation(8,84,0,6).
operation(8,85,7,79).
operation(8,86,3,81).
operation(8,87,1,18).
operation(8,88,8,73).
operation(8,89,4,55).

%--- Job 9
job(9).
operation(9,90,4,90).
operation(9,91,6,100).
operation(9,92,1,15).
operation(9,93,0,40).
operation(9,94,7,96).
operation(9,95,9,25).
operation(9,96,5,43).
operation(9,97,8,23).
operation(9,98,2,31).
operation(9,99,3,7).

%--- Job 10
job(10).
operation(10,100,5,61).
operation(10,101,4,88).
operation(10,102,6,10).
operation(10,103,3,48).
operation(10,104,0,100).
operation(10,105,2,62).
operation(10,106,1,83).
operation(10,107,8,20).
operation(10,108,7,42).
operation(10,109,9,19).

%--- Job 11
job(11).
operation(11,110,9,35).
operation(11,111,7,41).
operation(11,112,6,16).
operation(11,113,3,58).
operation(11,114,0,86).
operation(11,115,2,69).
operation(11,116,5,58).
operation(11,117,1,93).
operation(11,118,4,47).
operation(11,119,8,77).

%--- Job 12
job(12).
operation(12,120,2,61).
operation(12,121,0,40).
operation(12,122,4,99).
operation(12,123,1,51).
operation(12,124,7,46).
operation(12,125,6,39).
operation(12,126,3,43).
operation(12,127,9,37).
operation(12,128,8,88).
operation(12,129,5,9).

%--- Job 13
job(13).
operation(13,130,4,15).
operation(13,131,8,38).
operation(13,132,2,84).
operation(13,133,5,98).
operation(13,134,6,17).
operation(13,135,1,91).
operation(13,136,7,91).
operation(13,137,9,23).
operation(13,138,3,48).
operation(13,139,0,98).

%--- Job 14
job(14).
operation(14,140,3,26).
operation(14,141,2,42).
operation(14,142,8,55).
operation(14,143,4,24).
operation(14,144,0,43).
operation(14,145,1,83).
operation(14,146,9,27).
operation(14,147,7,38).
operation(14,148,6,37).
operation(14,149,5,58).

%--- Job 15
job(15).
operation(15,150,5,21).
operation(15,151,8,78).
operation(15,152,6,97).
operation(15,153,0,77).
operation(15,154,9,82).
operation(15,155,4,26).
operation(15,156,3,22).
operation(15,157,1,90).
operation(15,158,7,57).
operation(15,159,2,31).

%--- Job 16
job(16).
operation(16,160,4,3).
operation(16,161,9,44).
operation(16,162,3,90).
operation(16,163,1,64).
operation(16,164,5,52).
operation(16,165,8,35).
operation(16,166,7,18).
operation(16,167,2,45).
operation(16,168,0,4).
operation(16,169,6,14).

%--- Job 17
job(17).
operation(17,170,8,60).
operation(17,171,6,59).
operation(17,172,3,67).
operation(17,173,2,85).
operation(17,174,0,43).
operation(17,175,7,93).
operation(17,176,5,44).
operation(17,177,4,22).
operation(17,178,1,68).
operation(17,179,9,38).

%--- Job 18
job(18).
operation(18,180,4,77).
operation(18,181,8,41).
operation(18,182,2,74).
operation(18,183,6,99).
operation(18,184,0,100).
operation(18,185,1,45).
operation(18,186,9,14).
operation(18,187,3,26).
operation(18,188,7,98).
operation(18,189,5,77).

%--- Job 19
job(19).
operation(19,190,8,38).
operation(19,191,9,57).
operation(19,192,7,42).
operation(19,193,5,64).
operation(19,194,1,80).
operation(19,195,6,81).
operation(19,196,4,70).
operation(19,197,3,13).
operation(19,198,2,41).
operation(19,199,0,65).

%--- Job 20
job(20).
operation(20,200,9,36).
operation(20,201,4,22).
operation(20,202,8,39).
operation(20,203,0,76).
operation(20,204,1,78).
operation(20,205,2,27).
operation(20,206,5,55).
operation(20,207,3,10).
operation(20,208,6,5).
operation(20,209,7,71).

%--- Job 21
job(21).
operation(21,210,7,70).
operation(21,211,9,81).
operation(21,212,1,60).
operation(21,213,5,85).
operation(21,214,3,63).
operation(21,215,6,97).
operation(21,216,2,61).
operation(21,217,8,44).
operation(21,218,0,5).
operation(21,219,4,35).

%--- Job 22
job(22).
operation(22,220,9,38).
operation(22,221,0,94).
operation(22,222,2,46).
operation(22,223,5,20).
operation(22,224,8,87).
operation(22,225,1,41).
operation(22,226,4,41).
operation(22,227,3,40).
operation(22,228,7,99).
operation(22,229,6,48).

%--- Job 23
job(23).
operation(23,230,7,30).
operation(23,231,6,9).
operation(23,232,5,13).
operation(23,233,2,79).
operation(23,234,8,81).
operation(23,235,0,25).
operation(23,236,9,93).
operation(23,237,4,85).
operation(23,238,3,78).
operation(23,239,1,76).

%--- Job 24
job(24).
operation(24,240,4,6).
operation(24,241,8,58).
operation(24,242,6,51).
operation(24,243,7,48).
operation(24,244,2,68).
operation(24,245,3,34).
operation(24,246,5,78).
operation(24,247,9,59).
operation(24,248,1,98).
operation(24,249,0,36).

%--- Job 25
job(25).
operation(25,250,4,90).
operation(25,251,6,56).
operation(25,252,7,97).
operation(25,253,9,37).
operation(25,254,0,38).
operation(25,255,1,47).
operation(25,256,2,56).
operation(25,257,3,8).
operation(25,258,5,37).
operation(25,259,8,7).

%--- Job 26
job(26).
operation(26,260,0,66).
operation(26,261,8,15).
operation(26,262,1,39).
operation(26,263,5,89).
operation(26,264,7,3).
operation(26,265,9,54).
operation(26,266,3,24).
operation(26,267,2,14).
operation(26,268,6,99).
operation(26,269,4,73).

%--- Job 27
job(27).
operation(27,270,3,12).
operation(27,271,9,37).
operation(27,272,4,79).
operation(27,273,8,95).
operation(27,274,0,50).
operation(27,275,1,74).
operation(27,276,6,1).
operation(27,277,5,55).
operation(27,278,7,98).
operation(27,279,2,49).

%--- Job 28
job(28).
operation(28,280,8,99).
operation(28,281,9,79).
operation(28,282,3,99).
operation(28,283,2,87).
operation(28,284,0,80).
operation(28,285,4,13).
operation(28,286,5,99).
operation(28,287,6,13).
operation(28,288,1,54).
operation(28,289,7,61).

%--- Job 29
job(29).
operation(29,290,1,51).
operation(29,291,9,21).
operation(29,292,3,32).
operation(29,293,6,20).
operation(29,294,0,80).
operation(29,295,7,58).
operation(29,296,2,91).
operation(29,297,5,84).
operation(29,298,8,62).
operation(29,299,4,91).

%--- Job 30
job(30).
operation(30,300,1,11).
operation(30,301,8,38).
operation(30,302,2,14).
operation(30,303,9,12).
operation(30,304,3,39).
operation(30,305,5,34).
operation(30,306,0,37).
operation(30,307,6,94).
operation(30,308,4,10).
operation(30,309,7,2).

%--- Job 31
job(31).
operation(31,310,6,76).
operation(31,311,9,86).
operation(31,312,3,40).
operation(31,313,4,30).
operation(31,314,2,97).
operation(31,315,0,59).
operation(31,316,8,100).
operation(31,317,7,9).
operation(31,318,5,55).
operation(31,319,1,86).

%--- Job 32
job(32).
operation(32,320,3,33).
operation(32,321,1,49).
operation(32,322,0,94).
operation(32,323,2,17).
operation(32,324,6,17).
operation(32,325,8,70).
operation(32,326,5,17).
operation(32,327,7,42).
operation(32,328,4,26).
operation(32,329,9,24).

%--- Job 33
job(33).
operation(33,330,4,75).
operation(33,331,1,20).
operation(33,332,9,93).
operation(33,333,2,58).
operation(33,334,3,51).
operation(33,335,0,94).
operation(33,336,6,24).
operation(33,337,7,70).
operation(33,338,8,51).
operation(33,339,5,82).

%--- Job 34
job(34).
operation(34,340,8,59).
operation(34,341,1,9).
operation(34,342,3,59).
operation(34,343,5,62).
operation(34,344,9,79).
operation(34,345,7,53).
operation(34,346,6,48).
operation(34,347,4,98).
operation(34,348,2,76).
operation(34,349,0,71).

%--- Job 35
job(35).
operation(35,350,6,90).
operation(35,351,2,35).
operation(35,352,5,89).
operation(35,353,0,59).
operation(35,354,9,28).
operation(35,355,7,51).
operation(35,356,4,69).
operation(35,357,3,36).
operation(35,358,1,32).
operation(35,359,8,27).

%--- Job 36
job(36).
operation(36,360,5,10).
operation(36,361,6,85).
operation(36,362,4,97).
operation(36,363,1,3).
operation(36,364,0,79).
operation(36,365,9,86).
operation(36,366,3,10).
operation(36,367,7,80).
operation(36,368,2,37).
operation(36,369,8,39).

%--- Job 37
job(37).
operation(37,370,7,60).
operation(37,371,0,27).
operation(37,372,5,69).
operation(37,373,8,58).
operation(37,374,6,67).
operation(37,375,2,36).
operation(37,376,9,31).
operation(37,377,3,69).
operation(37,378,1,16).
operation(37,379,4,22).

%--- Job 38
job(38).
operation(38,380,2,27).
operation(38,381,5,16).
operation(38,382,6,15).
operation(38,383,4,40).
operation(38,384,8,16).
operation(38,385,1,92).
operation(38,386,9,60).
operation(38,387,7,43).
operation(38,388,3,2).
operation(38,389,0,7).

%--- Job 39
job(39).
operation(39,390,1,79).
operation(39,391,7,99).
operation(39,392,0,27).
operation(39,393,9,56).
operation(39,394,5,29).
operation(39,395,6,17).
operation(39,396,8,67).
operation(39,397,4,34).
operation(39,398,3,86).
operation(39,399,2,61).

%--- Job 40
job(40).
operation(40,400,6,57).
operation(40,401,7,100).
operation(40,402,4,73).
operation(40,403,9,17).
operation(40,404,8,3).
operation(40,405,3,64).
operation(40,406,2,99).
operation(40,407,0,71).
operation(40,408,5,27).
operation(40,409,1,90).

%--- Job 41
job(41).
operation(41,410,2,80).
operation(41,411,5,23).
operation(41,412,4,54).
operation(41,413,6,39).
operation(41,414,9,77).
operation(41,415,3,65).
operation(41,416,7,59).
operation(41,417,0,7).
operation(41,418,1,63).
operation(41,419,8,32).

%--- Job 42
job(42).
operation(42,420,4,98).
operation(42,421,6,17).
operation(42,422,8,44).
operation(42,423,5,1).
operation(42,424,3,10).
operation(42,425,7,56).
operation(42,426,2,95).
operation(42,427,9,80).
operation(42,428,0,99).
operation(42,429,1,64).

%--- Job 43
job(43).
operation(43,430,8,60).
operation(43,431,7,74).
operation(43,432,3,60).
operation(43,433,6,30).
operation(43,434,0,81).
operation(43,435,5,25).
operation(43,436,4,89).
operation(43,437,9,19).
operation(43,438,2,59).
operation(43,439,1,21).

%--- Job 44
job(44).
operation(44,440,1,67).
operation(44,441,0,42).
operation(44,442,8,93).
operation(44,443,2,47).
operation(44,444,5,34).
operation(44,445,7,11).
operation(44,446,6,100).
operation(44,447,9,15).
operation(44,448,4,99).
operation(44,449,3,2).

%--- Job 45
job(45).
operation(45,450,9,35).
operation(45,451,3,61).
operation(45,452,5,93).
operation(45,453,8,83).
operation(45,454,7,87).
operation(45,455,4,66).
operation(45,456,0,96).
operation(45,457,2,55).
operation(45,458,1,41).
operation(45,459,6,61).

%--- Job 46
job(46).
operation(46,460,8,22).
operation(46,461,5,25).
operation(46,462,7,29).
operation(46,463,3,70).
operation(46,464,6,93).
operation(46,465,1,19).
operation(46,466,0,49).
operation(46,467,9,62).
operation(46,468,2,19).
operation(46,469,4,73).

%--- Job 47
job(47).
operation(47,470,8,11).
operation(47,471,4,93).
operation(47,472,5,97).
operation(47,473,1,28).
operation(47,474,2,14).
operation(47,475,0,75).
operation(47,476,7,41).
operation(47,477,3,40).
operation(47,478,9,62).
operation(47,479,6,66).

%--- Job 48
job(48).
operation(48,480,7,76).
operation(48,481,6,61).
operation(48,482,8,64).
operation(48,483,3,90).
operation(48,484,0,20).
operation(48,485,2,43).
operation(48,486,9,50).
operation(48,487,1,13).
operation(48,488,5,4).
operation(48,489,4,47).

%--- Job 49
job(49).
operation(49,490,3,38).
operation(49,491,4,11).
operation(49,492,0,30).
operation(49,493,5,37).
operation(49,494,7,57).
operation(49,495,9,64).
operation(49,496,1,68).
operation(49,497,8,42).
operation(49,498,2,19).
operation(49,499,6,79).

