% ========= Metadata =========
   meta(name,swv13).
   meta(num_jobs,50).
   meta(num_machines,10).
   meta(num_operations,500).
   meta(optimum,3104).
   meta(upper_bound,3104).
   meta(lower_bound,3104).
% ==========================


machine(0..10).

%--- Job 0
job(0).
operation(0,0,4,68).
operation(0,1,1,39).
operation(0,2,2,79).
operation(0,3,0,72).
operation(0,4,3,65).
operation(0,5,5,82).
operation(0,6,7,33).
operation(0,7,6,82).
operation(0,8,8,66).
operation(0,9,9,55).

%--- Job 1
job(1).
operation(1,10,2,14).
operation(1,11,3,45).
operation(1,12,0,18).
operation(1,13,4,72).
operation(1,14,1,27).
operation(1,15,7,57).
operation(1,16,6,90).
operation(1,17,8,19).
operation(1,18,9,19).
operation(1,19,5,50).

%--- Job 2
job(2).
operation(2,20,4,25).
operation(2,21,1,77).
operation(2,22,0,64).
operation(2,23,3,18).
operation(2,24,2,19).
operation(2,25,8,27).
operation(2,26,6,97).
operation(2,27,9,81).
operation(2,28,7,65).
operation(2,29,5,11).

%--- Job 3
job(3).
operation(3,30,3,70).
operation(3,31,0,29).
operation(3,32,2,31).
operation(3,33,1,39).
operation(3,34,4,62).
operation(3,35,8,12).
operation(3,36,9,2).
operation(3,37,5,91).
operation(3,38,7,98).
operation(3,39,6,91).

%--- Job 4
job(4).
operation(4,40,2,90).
operation(4,41,4,51).
operation(4,42,3,38).
operation(4,43,1,27).
operation(4,44,0,29).
operation(4,45,6,67).
operation(4,46,8,95).
operation(4,47,9,60).
operation(4,48,7,86).
operation(4,49,5,64).

%--- Job 5
job(5).
operation(5,50,4,90).
operation(5,51,0,55).
operation(5,52,3,69).
operation(5,53,1,76).
operation(5,54,2,97).
operation(5,55,7,94).
operation(5,56,5,57).
operation(5,57,8,65).
operation(5,58,9,80).
operation(5,59,6,24).

%--- Job 6
job(6).
operation(6,60,1,23).
operation(6,61,4,13).
operation(6,62,0,90).
operation(6,63,3,24).
operation(6,64,2,41).
operation(6,65,8,69).
operation(6,66,7,8).
operation(6,67,5,81).
operation(6,68,6,94).
operation(6,69,9,76).

%--- Job 7
job(7).
operation(7,70,3,19).
operation(7,71,1,37).
operation(7,72,0,16).
operation(7,73,4,4).
operation(7,74,2,68).
operation(7,75,6,45).
operation(7,76,8,79).
operation(7,77,9,4).
operation(7,78,7,30).
operation(7,79,5,33).

%--- Job 8
job(8).
operation(8,80,2,36).
operation(8,81,0,76).
operation(8,82,3,97).
operation(8,83,4,71).
operation(8,84,1,19).
operation(8,85,9,87).
operation(8,86,6,97).
operation(8,87,8,64).
operation(8,88,5,84).
operation(8,89,7,43).

%--- Job 9
job(9).
operation(9,90,2,20).
operation(9,91,1,77).
operation(9,92,0,71).
operation(9,93,3,73).
operation(9,94,4,47).
operation(9,95,7,88).
operation(9,96,5,100).
operation(9,97,9,16).
operation(9,98,8,69).
operation(9,99,6,77).

%--- Job 10
job(10).
operation(10,100,3,55).
operation(10,101,4,96).
operation(10,102,0,8).
operation(10,103,2,61).
operation(10,104,1,40).
operation(10,105,8,46).
operation(10,106,7,29).
operation(10,107,9,71).
operation(10,108,5,89).
operation(10,109,6,59).

%--- Job 11
job(11).
operation(11,110,2,21).
operation(11,111,0,18).
operation(11,112,3,37).
operation(11,113,4,97).
operation(11,114,1,59).
operation(11,115,7,79).
operation(11,116,6,2).
operation(11,117,5,80).
operation(11,118,8,85).
operation(11,119,9,59).

%--- Job 12
job(12).
operation(12,120,4,19).
operation(12,121,1,83).
operation(12,122,2,1).
operation(12,123,0,95).
operation(12,124,3,48).
operation(12,125,9,37).
operation(12,126,7,59).
operation(12,127,5,56).
operation(12,128,8,57).
operation(12,129,6,81).

%--- Job 13
job(13).
operation(13,130,0,8).
operation(13,131,1,60).
operation(13,132,4,91).
operation(13,133,3,85).
operation(13,134,2,27).
operation(13,135,9,39).
operation(13,136,5,31).
operation(13,137,6,62).
operation(13,138,7,94).
operation(13,139,8,12).

%--- Job 14
job(14).
operation(14,140,4,2).
operation(14,141,3,10).
operation(14,142,0,17).
operation(14,143,1,38).
operation(14,144,2,96).
operation(14,145,6,21).
operation(14,146,9,81).
operation(14,147,8,64).
operation(14,148,5,76).
operation(14,149,7,46).

%--- Job 15
job(15).
operation(15,150,2,46).
operation(15,151,1,4).
operation(15,152,4,25).
operation(15,153,3,41).
operation(15,154,0,11).
operation(15,155,5,96).
operation(15,156,9,56).
operation(15,157,6,10).
operation(15,158,7,25).
operation(15,159,8,32).

%--- Job 16
job(16).
operation(16,160,0,21).
operation(16,161,1,77).
operation(16,162,4,22).
operation(16,163,2,72).
operation(16,164,3,53).
operation(16,165,9,28).
operation(16,166,7,23).
operation(16,167,5,2).
operation(16,168,8,52).
operation(16,169,6,83).

%--- Job 17
job(17).
operation(17,170,3,9).
operation(17,171,4,37).
operation(17,172,0,2).
operation(17,173,2,74).
operation(17,174,1,15).
operation(17,175,8,26).
operation(17,176,5,83).
operation(17,177,6,90).
operation(17,178,7,51).
operation(17,179,9,80).

%--- Job 18
job(18).
operation(18,180,3,6).
operation(18,181,1,7).
operation(18,182,0,57).
operation(18,183,2,4).
operation(18,184,4,56).
operation(18,185,7,11).
operation(18,186,5,57).
operation(18,187,8,12).
operation(18,188,6,94).
operation(18,189,9,29).

%--- Job 19
job(19).
operation(19,190,1,40).
operation(19,191,2,93).
operation(19,192,3,65).
operation(19,193,4,66).
operation(19,194,0,96).
operation(19,195,9,5).
operation(19,196,7,32).
operation(19,197,8,85).
operation(19,198,5,93).
operation(19,199,6,94).

%--- Job 20
job(20).
operation(20,200,1,38).
operation(20,201,2,19).
operation(20,202,4,22).
operation(20,203,0,73).
operation(20,204,3,7).
operation(20,205,5,63).
operation(20,206,8,28).
operation(20,207,6,23).
operation(20,208,9,11).
operation(20,209,7,84).

%--- Job 21
job(21).
operation(21,210,1,96).
operation(21,211,4,10).
operation(21,212,0,29).
operation(21,213,3,59).
operation(21,214,2,94).
operation(21,215,5,26).
operation(21,216,7,22).
operation(21,217,8,52).
operation(21,218,6,37).
operation(21,219,9,50).

%--- Job 22
job(22).
operation(22,220,1,38).
operation(22,221,3,31).
operation(22,222,2,76).
operation(22,223,0,8).
operation(22,224,4,8).
operation(22,225,6,50).
operation(22,226,5,95).
operation(22,227,8,5).
operation(22,228,9,25).
operation(22,229,7,62).

%--- Job 23
job(23).
operation(23,230,0,15).
operation(23,231,2,84).
operation(23,232,4,100).
operation(23,233,3,76).
operation(23,234,1,66).
operation(23,235,7,56).
operation(23,236,5,95).
operation(23,237,8,94).
operation(23,238,6,56).
operation(23,239,9,85).

%--- Job 24
job(24).
operation(24,240,3,73).
operation(24,241,2,38).
operation(24,242,1,84).
operation(24,243,0,42).
operation(24,244,4,37).
operation(24,245,5,16).
operation(24,246,7,24).
operation(24,247,9,59).
operation(24,248,6,60).
operation(24,249,8,23).

%--- Job 25
job(25).
operation(25,250,3,43).
operation(25,251,1,79).
operation(25,252,0,80).
operation(25,253,2,44).
operation(25,254,4,65).
operation(25,255,5,81).
operation(25,256,7,7).
operation(25,257,8,93).
operation(25,258,6,55).
operation(25,259,9,34).

%--- Job 26
job(26).
operation(26,260,2,8).
operation(26,261,4,2).
operation(26,262,0,12).
operation(26,263,3,55).
operation(26,264,1,60).
operation(26,265,9,91).
operation(26,266,6,6).
operation(26,267,5,83).
operation(26,268,8,31).
operation(26,269,7,91).

%--- Job 27
job(27).
operation(27,270,0,8).
operation(27,271,4,46).
operation(27,272,3,47).
operation(27,273,2,57).
operation(27,274,1,47).
operation(27,275,9,55).
operation(27,276,8,74).
operation(27,277,7,98).
operation(27,278,6,54).
operation(27,279,5,51).

%--- Job 28
job(28).
operation(28,280,2,56).
operation(28,281,4,90).
operation(28,282,1,41).
operation(28,283,0,35).
operation(28,284,3,62).
operation(28,285,7,4).
operation(28,286,5,15).
operation(28,287,9,89).
operation(28,288,6,73).
operation(28,289,8,66).

%--- Job 29
job(29).
operation(29,290,0,2).
operation(29,291,4,39).
operation(29,292,3,44).
operation(29,293,1,68).
operation(29,294,2,54).
operation(29,295,7,7).
operation(29,296,8,76).
operation(29,297,9,29).
operation(29,298,5,90).
operation(29,299,6,53).

%--- Job 30
job(30).
operation(30,300,2,34).
operation(30,301,0,94).
operation(30,302,3,1).
operation(30,303,1,23).
operation(30,304,4,45).
operation(30,305,8,83).
operation(30,306,7,84).
operation(30,307,5,49).
operation(30,308,6,67).
operation(30,309,9,49).

%--- Job 31
job(31).
operation(31,310,4,4).
operation(31,311,2,70).
operation(31,312,1,19).
operation(31,313,0,19).
operation(31,314,3,92).
operation(31,315,5,70).
operation(31,316,7,33).
operation(31,317,9,50).
operation(31,318,8,82).
operation(31,319,6,48).

%--- Job 32
job(32).
operation(32,320,4,64).
operation(32,321,2,76).
operation(32,322,0,70).
operation(32,323,3,83).
operation(32,324,1,91).
operation(32,325,7,98).
operation(32,326,8,37).
operation(32,327,5,3).
operation(32,328,9,75).
operation(32,329,6,92).

%--- Job 33
job(33).
operation(33,330,3,96).
operation(33,331,1,17).
operation(33,332,0,20).
operation(33,333,4,13).
operation(33,334,2,28).
operation(33,335,7,21).
operation(33,336,9,65).
operation(33,337,5,87).
operation(33,338,6,54).
operation(33,339,8,98).

%--- Job 34
job(34).
operation(34,340,0,68).
operation(34,341,4,40).
operation(34,342,3,98).
operation(34,343,2,90).
operation(34,344,1,38).
operation(34,345,7,45).
operation(34,346,8,21).
operation(34,347,5,9).
operation(34,348,9,3).
operation(34,349,6,47).

%--- Job 35
job(35).
operation(35,350,0,58).
operation(35,351,4,19).
operation(35,352,2,16).
operation(35,353,3,74).
operation(35,354,1,32).
operation(35,355,9,32).
operation(35,356,5,58).
operation(35,357,6,93).
operation(35,358,7,1).
operation(35,359,8,80).

%--- Job 36
job(36).
operation(36,360,0,32).
operation(36,361,2,99).
operation(36,362,1,95).
operation(36,363,3,2).
operation(36,364,4,8).
operation(36,365,9,55).
operation(36,366,6,32).
operation(36,367,8,26).
operation(36,368,5,6).
operation(36,369,7,68).

%--- Job 37
job(37).
operation(37,370,3,7).
operation(37,371,4,45).
operation(37,372,2,19).
operation(37,373,0,97).
operation(37,374,1,56).
operation(37,375,7,22).
operation(37,376,9,72).
operation(37,377,8,98).
operation(37,378,5,59).
operation(37,379,6,20).

%--- Job 38
job(38).
operation(38,380,2,97).
operation(38,381,4,98).
operation(38,382,3,43).
operation(38,383,0,28).
operation(38,384,1,23).
operation(38,385,5,3).
operation(38,386,8,75).
operation(38,387,9,43).
operation(38,388,7,58).
operation(38,389,6,71).

%--- Job 39
job(39).
operation(39,390,3,31).
operation(39,391,0,88).
operation(39,392,2,88).
operation(39,393,1,82).
operation(39,394,4,65).
operation(39,395,5,53).
operation(39,396,9,15).
operation(39,397,7,68).
operation(39,398,6,60).
operation(39,399,8,99).

%--- Job 40
job(40).
operation(40,400,4,4).
operation(40,401,0,100).
operation(40,402,2,95).
operation(40,403,1,11).
operation(40,404,3,28).
operation(40,405,5,80).
operation(40,406,7,25).
operation(40,407,9,87).
operation(40,408,6,25).
operation(40,409,8,9).

%--- Job 41
job(41).
operation(41,410,0,75).
operation(41,411,3,10).
operation(41,412,4,59).
operation(41,413,2,80).
operation(41,414,1,60).
operation(41,415,5,75).
operation(41,416,8,87).
operation(41,417,6,33).
operation(41,418,9,10).
operation(41,419,7,31).

%--- Job 42
job(42).
operation(42,420,0,54).
operation(42,421,3,6).
operation(42,422,4,7).
operation(42,423,1,72).
operation(42,424,2,49).
operation(42,425,7,72).
operation(42,426,8,64).
operation(42,427,6,32).
operation(42,428,9,86).
operation(42,429,5,69).

%--- Job 43
job(43).
operation(43,430,4,15).
operation(43,431,3,19).
operation(43,432,1,18).
operation(43,433,0,84).
operation(43,434,2,96).
operation(43,435,9,71).
operation(43,436,8,64).
operation(43,437,6,38).
operation(43,438,5,58).
operation(43,439,7,62).

%--- Job 44
job(44).
operation(44,440,1,32).
operation(44,441,4,80).
operation(44,442,2,83).
operation(44,443,3,83).
operation(44,444,0,50).
operation(44,445,5,81).
operation(44,446,7,82).
operation(44,447,9,33).
operation(44,448,8,10).
operation(44,449,6,55).

%--- Job 45
job(45).
operation(45,450,0,65).
operation(45,451,4,95).
operation(45,452,3,84).
operation(45,453,2,64).
operation(45,454,1,18).
operation(45,455,9,27).
operation(45,456,6,70).
operation(45,457,7,74).
operation(45,458,5,87).
operation(45,459,8,68).

%--- Job 46
job(46).
operation(46,460,1,50).
operation(46,461,2,49).
operation(46,462,0,96).
operation(46,463,3,1).
operation(46,464,4,89).
operation(46,465,8,42).
operation(46,466,5,88).
operation(46,467,9,91).
operation(46,468,6,64).
operation(46,469,7,3).

%--- Job 47
job(47).
operation(47,470,3,44).
operation(47,471,0,91).
operation(47,472,1,5).
operation(47,473,2,100).
operation(47,474,4,77).
operation(47,475,6,20).
operation(47,476,5,13).
operation(47,477,7,25).
operation(47,478,9,71).
operation(47,479,8,71).

%--- Job 48
job(48).
operation(48,480,0,86).
operation(48,481,4,91).
operation(48,482,1,19).
operation(48,483,2,69).
operation(48,484,3,71).
operation(48,485,5,13).
operation(48,486,8,87).
operation(48,487,6,98).
operation(48,488,9,43).
operation(48,489,7,13).

%--- Job 49
job(49).
operation(49,490,4,8).
operation(49,491,0,60).
operation(49,492,3,31).
operation(49,493,2,93).
operation(49,494,1,8).
operation(49,495,9,1).
operation(49,496,7,19).
operation(49,497,6,8).
operation(49,498,5,85).
operation(49,499,8,24).

