% ========= Metadata =========
   meta(name,swv11).
   meta(num_jobs,50).
   meta(num_machines,10).
   meta(num_operations,500).
   meta(optimum,2983).
   meta(upper_bound,2983).
   meta(lower_bound,2983).
% ==========================


machine(0..10).

%--- Job 0
job(0).
operation(0,0,0,92).
operation(0,1,4,47).
operation(0,2,3,56).
operation(0,3,2,91).
operation(0,4,1,49).
operation(0,5,5,39).
operation(0,6,9,63).
operation(0,7,7,12).
operation(0,8,6,1).
operation(0,9,8,37).

%--- Job 1
job(1).
operation(1,10,0,86).
operation(1,11,2,100).
operation(1,12,1,75).
operation(1,13,3,92).
operation(1,14,4,90).
operation(1,15,5,11).
operation(1,16,7,85).
operation(1,17,8,54).
operation(1,18,9,100).
operation(1,19,6,38).

%--- Job 2
job(2).
operation(2,20,1,4).
operation(2,21,4,94).
operation(2,22,3,44).
operation(2,23,2,40).
operation(2,24,0,92).
operation(2,25,8,53).
operation(2,26,6,40).
operation(2,27,9,5).
operation(2,28,5,68).
operation(2,29,7,27).

%--- Job 3
job(3).
operation(3,30,4,87).
operation(3,31,0,48).
operation(3,32,1,59).
operation(3,33,2,92).
operation(3,34,3,35).
operation(3,35,6,99).
operation(3,36,7,46).
operation(3,37,9,27).
operation(3,38,8,83).
operation(3,39,5,91).

%--- Job 4
job(4).
operation(4,40,0,83).
operation(4,41,1,78).
operation(4,42,4,76).
operation(4,43,3,64).
operation(4,44,2,44).
operation(4,45,8,12).
operation(4,46,9,91).
operation(4,47,6,31).
operation(4,48,7,98).
operation(4,49,5,63).

%--- Job 5
job(5).
operation(5,50,3,49).
operation(5,51,0,15).
operation(5,52,1,100).
operation(5,53,4,18).
operation(5,54,2,24).
operation(5,55,6,92).
operation(5,56,9,65).
operation(5,57,5,26).
operation(5,58,7,29).
operation(5,59,8,24).

%--- Job 6
job(6).
operation(6,60,0,28).
operation(6,61,3,53).
operation(6,62,4,84).
operation(6,63,2,47).
operation(6,64,1,85).
operation(6,65,7,100).
operation(6,66,5,34).
operation(6,67,6,35).
operation(6,68,8,90).
operation(6,69,9,88).

%--- Job 7
job(7).
operation(7,70,2,61).
operation(7,71,4,71).
operation(7,72,3,54).
operation(7,73,1,34).
operation(7,74,0,13).
operation(7,75,9,47).
operation(7,76,8,2).
operation(7,77,6,97).
operation(7,78,7,27).
operation(7,79,5,97).

%--- Job 8
job(8).
operation(8,80,0,85).
operation(8,81,2,75).
operation(8,82,1,33).
operation(8,83,4,72).
operation(8,84,3,49).
operation(8,85,7,23).
operation(8,86,5,12).
operation(8,87,8,90).
operation(8,88,6,87).
operation(8,89,9,42).

%--- Job 9
job(9).
operation(9,90,2,24).
operation(9,91,3,20).
operation(9,92,1,65).
operation(9,93,4,33).
operation(9,94,0,75).
operation(9,95,9,47).
operation(9,96,6,84).
operation(9,97,8,44).
operation(9,98,7,74).
operation(9,99,5,29).

%--- Job 10
job(10).
operation(10,100,2,48).
operation(10,101,3,27).
operation(10,102,4,1).
operation(10,103,0,23).
operation(10,104,1,66).
operation(10,105,6,35).
operation(10,106,7,46).
operation(10,107,9,29).
operation(10,108,5,63).
operation(10,109,8,44).

%--- Job 11
job(11).
operation(11,110,2,79).
operation(11,111,0,4).
operation(11,112,4,61).
operation(11,113,3,46).
operation(11,114,1,69).
operation(11,115,7,10).
operation(11,116,8,88).
operation(11,117,9,19).
operation(11,118,6,50).
operation(11,119,5,34).

%--- Job 12
job(12).
operation(12,120,0,16).
operation(12,121,4,31).
operation(12,122,3,77).
operation(12,123,2,3).
operation(12,124,1,25).
operation(12,125,8,88).
operation(12,126,7,97).
operation(12,127,9,49).
operation(12,128,6,79).
operation(12,129,5,22).

%--- Job 13
job(13).
operation(13,130,1,40).
operation(13,131,0,39).
operation(13,132,4,15).
operation(13,133,2,93).
operation(13,134,3,48).
operation(13,135,6,63).
operation(13,136,9,74).
operation(13,137,8,46).
operation(13,138,7,91).
operation(13,139,5,51).

%--- Job 14
job(14).
operation(14,140,4,48).
operation(14,141,0,93).
operation(14,142,2,8).
operation(14,143,3,50).
operation(14,144,1,5).
operation(14,145,6,48).
operation(14,146,7,46).
operation(14,147,9,35).
operation(14,148,5,88).
operation(14,149,8,97).

%--- Job 15
job(15).
operation(15,150,3,70).
operation(15,151,1,8).
operation(15,152,2,65).
operation(15,153,0,32).
operation(15,154,4,84).
operation(15,155,8,9).
operation(15,156,6,43).
operation(15,157,7,10).
operation(15,158,5,72).
operation(15,159,9,60).

%--- Job 16
job(16).
operation(16,160,0,21).
operation(16,161,2,28).
operation(16,162,1,26).
operation(16,163,3,91).
operation(16,164,4,58).
operation(16,165,9,90).
operation(16,166,6,43).
operation(16,167,8,64).
operation(16,168,5,39).
operation(16,169,7,93).

%--- Job 17
job(17).
operation(17,170,1,50).
operation(17,171,2,60).
operation(17,172,0,51).
operation(17,173,4,90).
operation(17,174,3,93).
operation(17,175,7,20).
operation(17,176,9,33).
operation(17,177,8,27).
operation(17,178,6,12).
operation(17,179,5,89).

%--- Job 18
job(18).
operation(18,180,1,21).
operation(18,181,3,3).
operation(18,182,2,47).
operation(18,183,4,34).
operation(18,184,0,53).
operation(18,185,9,67).
operation(18,186,8,8).
operation(18,187,5,68).
operation(18,188,7,1).
operation(18,189,6,71).

%--- Job 19
job(19).
operation(19,190,3,57).
operation(19,191,4,26).
operation(19,192,2,36).
operation(19,193,0,48).
operation(19,194,1,11).
operation(19,195,9,44).
operation(19,196,7,25).
operation(19,197,5,30).
operation(19,198,8,92).
operation(19,199,6,57).

%--- Job 20
job(20).
operation(20,200,1,20).
operation(20,201,0,20).
operation(20,202,4,6).
operation(20,203,3,74).
operation(20,204,2,48).
operation(20,205,9,77).
operation(20,206,8,15).
operation(20,207,5,80).
operation(20,208,7,27).
operation(20,209,6,10).

%--- Job 21
job(21).
operation(21,210,3,71).
operation(21,211,1,40).
operation(21,212,0,86).
operation(21,213,2,23).
operation(21,214,4,29).
operation(21,215,7,99).
operation(21,216,8,56).
operation(21,217,6,100).
operation(21,218,9,77).
operation(21,219,5,28).

%--- Job 22
job(22).
operation(22,220,4,83).
operation(22,221,0,61).
operation(22,222,3,27).
operation(22,223,1,86).
operation(22,224,2,99).
operation(22,225,7,31).
operation(22,226,5,60).
operation(22,227,8,40).
operation(22,228,9,84).
operation(22,229,6,26).

%--- Job 23
job(23).
operation(23,230,4,68).
operation(23,231,1,94).
operation(23,232,3,46).
operation(23,233,2,60).
operation(23,234,0,33).
operation(23,235,7,46).
operation(23,236,5,86).
operation(23,237,9,63).
operation(23,238,6,70).
operation(23,239,8,89).

%--- Job 24
job(24).
operation(24,240,4,33).
operation(24,241,1,13).
operation(24,242,2,91).
operation(24,243,3,27).
operation(24,244,0,38).
operation(24,245,8,82).
operation(24,246,7,31).
operation(24,247,6,23).
operation(24,248,9,27).
operation(24,249,5,87).

%--- Job 25
job(25).
operation(25,250,4,58).
operation(25,251,3,30).
operation(25,252,0,24).
operation(25,253,2,12).
operation(25,254,1,38).
operation(25,255,8,2).
operation(25,256,9,37).
operation(25,257,5,59).
operation(25,258,6,37).
operation(25,259,7,36).

%--- Job 26
job(26).
operation(26,260,2,62).
operation(26,261,1,47).
operation(26,262,4,5).
operation(26,263,3,39).
operation(26,264,0,75).
operation(26,265,7,60).
operation(26,266,9,65).
operation(26,267,8,61).
operation(26,268,6,77).
operation(26,269,5,31).

%--- Job 27
job(27).
operation(27,270,4,100).
operation(27,271,0,21).
operation(27,272,1,53).
operation(27,273,3,74).
operation(27,274,2,3).
operation(27,275,8,34).
operation(27,276,6,6).
operation(27,277,7,91).
operation(27,278,9,80).
operation(27,279,5,28).

%--- Job 28
job(28).
operation(28,280,1,8).
operation(28,281,0,3).
operation(28,282,2,88).
operation(28,283,3,54).
operation(28,284,4,18).
operation(28,285,9,4).
operation(28,286,6,34).
operation(28,287,5,54).
operation(28,288,8,59).
operation(28,289,7,42).

%--- Job 29
job(29).
operation(29,290,3,33).
operation(29,291,4,72).
operation(29,292,0,83).
operation(29,293,2,17).
operation(29,294,1,23).
operation(29,295,6,24).
operation(29,296,8,60).
operation(29,297,9,96).
operation(29,298,7,78).
operation(29,299,5,70).

%--- Job 30
job(30).
operation(30,300,4,63).
operation(30,301,2,36).
operation(30,302,3,70).
operation(30,303,0,97).
operation(30,304,1,99).
operation(30,305,6,71).
operation(30,306,9,92).
operation(30,307,5,41).
operation(30,308,8,73).
operation(30,309,7,97).

%--- Job 31
job(31).
operation(31,310,2,28).
operation(31,311,1,37).
operation(31,312,4,24).
operation(31,313,0,30).
operation(31,314,3,55).
operation(31,315,8,38).
operation(31,316,5,9).
operation(31,317,9,77).
operation(31,318,7,17).
operation(31,319,6,51).

%--- Job 32
job(32).
operation(32,320,3,15).
operation(32,321,0,46).
operation(32,322,2,14).
operation(32,323,4,18).
operation(32,324,1,99).
operation(32,325,9,48).
operation(32,326,6,41).
operation(32,327,5,10).
operation(32,328,7,47).
operation(32,329,8,80).

%--- Job 33
job(33).
operation(33,330,4,89).
operation(33,331,3,78).
operation(33,332,2,51).
operation(33,333,1,63).
operation(33,334,0,29).
operation(33,335,7,70).
operation(33,336,9,7).
operation(33,337,5,14).
operation(33,338,8,84).
operation(33,339,6,32).

%--- Job 34
job(34).
operation(34,340,4,26).
operation(34,341,1,69).
operation(34,342,2,92).
operation(34,343,3,15).
operation(34,344,0,23).
operation(34,345,8,42).
operation(34,346,6,95).
operation(34,347,5,47).
operation(34,348,9,83).
operation(34,349,7,56).

%--- Job 35
job(35).
operation(35,350,1,38).
operation(35,351,2,44).
operation(35,352,3,47).
operation(35,353,4,23).
operation(35,354,0,10).
operation(35,355,9,63).
operation(35,356,7,65).
operation(35,357,6,21).
operation(35,358,5,70).
operation(35,359,8,56).

%--- Job 36
job(36).
operation(36,360,3,42).
operation(36,361,4,85).
operation(36,362,1,29).
operation(36,363,0,35).
operation(36,364,2,66).
operation(36,365,9,46).
operation(36,366,8,25).
operation(36,367,5,90).
operation(36,368,7,85).
operation(36,369,6,75).

%--- Job 37
job(37).
operation(37,370,3,99).
operation(37,371,0,46).
operation(37,372,4,74).
operation(37,373,2,96).
operation(37,374,1,48).
operation(37,375,5,52).
operation(37,376,6,13).
operation(37,377,7,88).
operation(37,378,8,4).
operation(37,379,9,30).

%--- Job 38
job(38).
operation(38,380,1,15).
operation(38,381,3,80).
operation(38,382,4,47).
operation(38,383,2,25).
operation(38,384,0,8).
operation(38,385,9,61).
operation(38,386,7,70).
operation(38,387,8,23).
operation(38,388,6,93).
operation(38,389,5,5).

%--- Job 39
job(39).
operation(39,390,0,90).
operation(39,391,2,51).
operation(39,392,3,66).
operation(39,393,4,5).
operation(39,394,1,86).
operation(39,395,5,59).
operation(39,396,6,97).
operation(39,397,9,28).
operation(39,398,7,85).
operation(39,399,8,9).

%--- Job 40
job(40).
operation(40,400,0,59).
operation(40,401,1,50).
operation(40,402,4,40).
operation(40,403,3,23).
operation(40,404,2,93).
operation(40,405,7,61).
operation(40,406,9,96).
operation(40,407,8,63).
operation(40,408,6,34).
operation(40,409,5,14).

%--- Job 41
job(41).
operation(41,410,1,62).
operation(41,411,2,72).
operation(41,412,4,30).
operation(41,413,0,21).
operation(41,414,3,15).
operation(41,415,5,77).
operation(41,416,6,13).
operation(41,417,7,2).
operation(41,418,8,22).
operation(41,419,9,22).

%--- Job 42
job(42).
operation(42,420,2,20).
operation(42,421,4,14).
operation(42,422,3,85).
operation(42,423,1,4).
operation(42,424,0,2).
operation(42,425,9,33).
operation(42,426,7,90).
operation(42,427,5,48).
operation(42,428,8,90).
operation(42,429,6,62).

%--- Job 43
job(43).
operation(43,430,0,49).
operation(43,431,3,49).
operation(43,432,4,46).
operation(43,433,1,89).
operation(43,434,2,64).
operation(43,435,9,72).
operation(43,436,8,6).
operation(43,437,5,83).
operation(43,438,6,13).
operation(43,439,7,66).

%--- Job 44
job(44).
operation(44,440,4,74).
operation(44,441,1,55).
operation(44,442,2,73).
operation(44,443,0,25).
operation(44,444,3,16).
operation(44,445,7,19).
operation(44,446,9,38).
operation(44,447,6,22).
operation(44,448,5,26).
operation(44,449,8,63).

%--- Job 45
job(45).
operation(45,450,3,13).
operation(45,451,2,96).
operation(45,452,1,8).
operation(45,453,0,15).
operation(45,454,4,97).
operation(45,455,6,95).
operation(45,456,7,2).
operation(45,457,5,66).
operation(45,458,8,57).
operation(45,459,9,46).

%--- Job 46
job(46).
operation(46,460,4,73).
operation(46,461,1,97).
operation(46,462,3,39).
operation(46,463,0,22).
operation(46,464,2,90).
operation(46,465,9,64).
operation(46,466,6,65).
operation(46,467,8,31).
operation(46,468,5,98).
operation(46,469,7,85).

%--- Job 47
job(47).
operation(47,470,3,43).
operation(47,471,2,67).
operation(47,472,0,38).
operation(47,473,1,77).
operation(47,474,4,11).
operation(47,475,7,61).
operation(47,476,5,7).
operation(47,477,9,95).
operation(47,478,8,97).
operation(47,479,6,69).

%--- Job 48
job(48).
operation(48,480,0,35).
operation(48,481,2,68).
operation(48,482,1,5).
operation(48,483,3,46).
operation(48,484,4,4).
operation(48,485,7,51).
operation(48,486,6,44).
operation(48,487,5,58).
operation(48,488,9,69).
operation(48,489,8,98).

%--- Job 49
job(49).
operation(49,490,2,68).
operation(49,491,1,81).
operation(49,492,0,2).
operation(49,493,3,4).
operation(49,494,4,59).
operation(49,495,9,53).
operation(49,496,8,69).
operation(49,497,5,69).
operation(49,498,6,14).
operation(49,499,7,21).

