% ========= Metadata =========
   meta(name,swv18).
   meta(num_jobs,50).
   meta(num_machines,10).
   meta(num_operations,500).
   meta(optimum,2852).
   meta(upper_bound,2852).
   meta(lower_bound,2852).
% ==========================


machine(0..10).

%--- Job 0
job(0).
operation(0,0,7,35).
operation(0,1,6,23).
operation(0,2,2,92).
operation(0,3,4,5).
operation(0,4,5,40).
operation(0,5,1,90).
operation(0,6,3,30).
operation(0,7,9,35).
operation(0,8,8,8).
operation(0,9,0,86).

%--- Job 1
job(1).
operation(1,10,2,60).
operation(1,11,3,97).
operation(1,12,8,21).
operation(1,13,9,70).
operation(1,14,7,82).
operation(1,15,0,12).
operation(1,16,4,3).
operation(1,17,5,45).
operation(1,18,1,75).
operation(1,19,6,69).

%--- Job 2
job(2).
operation(2,20,7,96).
operation(2,21,2,38).
operation(2,22,0,61).
operation(2,23,1,55).
operation(2,24,4,31).
operation(2,25,5,48).
operation(2,26,9,79).
operation(2,27,3,4).
operation(2,28,6,12).
operation(2,29,8,29).

%--- Job 3
job(3).
operation(3,30,4,83).
operation(3,31,7,82).
operation(3,32,8,97).
operation(3,33,1,43).
operation(3,34,0,95).
operation(3,35,6,92).
operation(3,36,2,18).
operation(3,37,3,29).
operation(3,38,5,4).
operation(3,39,9,67).

%--- Job 4
job(4).
operation(4,40,3,46).
operation(4,41,9,80).
operation(4,42,8,66).
operation(4,43,2,38).
operation(4,44,4,95).
operation(4,45,1,40).
operation(4,46,7,89).
operation(4,47,0,32).
operation(4,48,6,64).
operation(4,49,5,1).

%--- Job 5
job(5).
operation(5,50,6,57).
operation(5,51,4,80).
operation(5,52,8,68).
operation(5,53,7,27).
operation(5,54,0,90).
operation(5,55,5,45).
operation(5,56,3,98).
operation(5,57,9,59).
operation(5,58,1,6).
operation(5,59,2,94).

%--- Job 6
job(6).
operation(6,60,5,50).
operation(6,61,0,91).
operation(6,62,2,97).
operation(6,63,9,63).
operation(6,64,7,52).
operation(6,65,3,48).
operation(6,66,4,4).
operation(6,67,8,96).
operation(6,68,1,18).
operation(6,69,6,100).

%--- Job 7
job(7).
operation(7,70,7,23).
operation(7,71,6,43).
operation(7,72,3,25).
operation(7,73,8,83).
operation(7,74,2,76).
operation(7,75,9,41).
operation(7,76,1,88).
operation(7,77,0,31).
operation(7,78,5,44).
operation(7,79,4,13).

%--- Job 8
job(8).
operation(8,80,2,20).
operation(8,81,3,90).
operation(8,82,9,20).
operation(8,83,4,42).
operation(8,84,8,72).
operation(8,85,5,46).
operation(8,86,1,27).
operation(8,87,0,81).
operation(8,88,6,40).
operation(8,89,7,34).

%--- Job 9
job(9).
operation(9,90,7,80).
operation(9,91,5,97).
operation(9,92,0,42).
operation(9,93,2,49).
operation(9,94,9,10).
operation(9,95,1,10).
operation(9,96,3,71).
operation(9,97,4,71).
operation(9,98,6,14).
operation(9,99,8,98).

%--- Job 10
job(10).
operation(10,100,2,79).
operation(10,101,3,29).
operation(10,102,0,96).
operation(10,103,7,66).
operation(10,104,1,58).
operation(10,105,8,31).
operation(10,106,4,47).
operation(10,107,5,76).
operation(10,108,6,59).
operation(10,109,9,88).

%--- Job 11
job(11).
operation(11,110,8,93).
operation(11,111,6,3).
operation(11,112,1,7).
operation(11,113,3,27).
operation(11,114,5,66).
operation(11,115,7,23).
operation(11,116,0,60).
operation(11,117,4,97).
operation(11,118,2,66).
operation(11,119,9,55).

%--- Job 12
job(12).
operation(12,120,9,12).
operation(12,121,8,39).
operation(12,122,4,77).
operation(12,123,5,79).
operation(12,124,0,26).
operation(12,125,7,58).
operation(12,126,2,98).
operation(12,127,6,38).
operation(12,128,3,31).
operation(12,129,1,28).

%--- Job 13
job(13).
operation(13,130,6,8).
operation(13,131,9,48).
operation(13,132,4,4).
operation(13,133,1,87).
operation(13,134,3,38).
operation(13,135,2,28).
operation(13,136,8,10).
operation(13,137,0,19).
operation(13,138,7,82).
operation(13,139,5,83).

%--- Job 14
job(14).
operation(14,140,5,6).
operation(14,141,9,13).
operation(14,142,2,86).
operation(14,143,6,19).
operation(14,144,3,26).
operation(14,145,7,79).
operation(14,146,0,55).
operation(14,147,1,85).
operation(14,148,8,33).
operation(14,149,4,30).

%--- Job 15
job(15).
operation(15,150,3,37).
operation(15,151,8,26).
operation(15,152,7,29).
operation(15,153,6,74).
operation(15,154,9,43).
operation(15,155,5,17).
operation(15,156,0,45).
operation(15,157,2,28).
operation(15,158,1,58).
operation(15,159,4,15).

%--- Job 16
job(16).
operation(16,160,7,15).
operation(16,161,3,37).
operation(16,162,6,21).
operation(16,163,5,47).
operation(16,164,2,90).
operation(16,165,0,37).
operation(16,166,9,33).
operation(16,167,1,42).
operation(16,168,4,7).
operation(16,169,8,62).

%--- Job 17
job(17).
operation(17,170,8,49).
operation(17,171,4,46).
operation(17,172,1,28).
operation(17,173,7,18).
operation(17,174,6,41).
operation(17,175,2,57).
operation(17,176,0,75).
operation(17,177,3,21).
operation(17,178,9,3).
operation(17,179,5,32).

%--- Job 18
job(18).
operation(18,180,6,98).
operation(18,181,1,30).
operation(18,182,8,24).
operation(18,183,4,91).
operation(18,184,9,73).
operation(18,185,7,25).
operation(18,186,5,49).
operation(18,187,0,40).
operation(18,188,2,9).
operation(18,189,3,4).

%--- Job 19
job(19).
operation(19,190,6,33).
operation(19,191,3,94).
operation(19,192,1,21).
operation(19,193,2,90).
operation(19,194,9,86).
operation(19,195,7,85).
operation(19,196,5,29).
operation(19,197,0,17).
operation(19,198,4,94).
operation(19,199,8,90).

%--- Job 20
job(20).
operation(20,200,6,3).
operation(20,201,4,85).
operation(20,202,1,66).
operation(20,203,7,61).
operation(20,204,8,57).
operation(20,205,3,84).
operation(20,206,2,5).
operation(20,207,9,40).
operation(20,208,0,54).
operation(20,209,5,70).

%--- Job 21
job(21).
operation(21,210,7,81).
operation(21,211,1,98).
operation(21,212,2,45).
operation(21,213,0,18).
operation(21,214,6,65).
operation(21,215,9,1).
operation(21,216,4,98).
operation(21,217,3,30).
operation(21,218,8,84).
operation(21,219,5,82).

%--- Job 22
job(22).
operation(22,220,6,40).
operation(22,221,7,77).
operation(22,222,3,72).
operation(22,223,1,97).
operation(22,224,5,39).
operation(22,225,4,21).
operation(22,226,0,59).
operation(22,227,8,42).
operation(22,228,9,90).
operation(22,229,2,26).

%--- Job 23
job(23).
operation(23,230,5,57).
operation(23,231,3,63).
operation(23,232,1,14).
operation(23,233,4,64).
operation(23,234,6,23).
operation(23,235,8,78).
operation(23,236,2,54).
operation(23,237,0,51).
operation(23,238,9,100).
operation(23,239,7,96).

%--- Job 24
job(24).
operation(24,240,5,61).
operation(24,241,1,55).
operation(24,242,6,73).
operation(24,243,2,87).
operation(24,244,4,35).
operation(24,245,3,41).
operation(24,246,7,96).
operation(24,247,0,32).
operation(24,248,8,91).
operation(24,249,9,60).

%--- Job 25
job(25).
operation(25,250,9,19).
operation(25,251,5,90).
operation(25,252,8,91).
operation(25,253,0,45).
operation(25,254,3,66).
operation(25,255,2,84).
operation(25,256,1,61).
operation(25,257,7,3).
operation(25,258,6,84).
operation(25,259,4,100).

%--- Job 26
job(26).
operation(26,260,2,33).
operation(26,261,9,72).
operation(26,262,6,27).
operation(26,263,8,14).
operation(26,264,3,59).
operation(26,265,0,39).
operation(26,266,7,20).
operation(26,267,5,29).
operation(26,268,4,54).
operation(26,269,1,88).

%--- Job 27
job(27).
operation(27,270,4,45).
operation(27,271,0,18).
operation(27,272,3,73).
operation(27,273,2,26).
operation(27,274,8,55).
operation(27,275,6,22).
operation(27,276,7,27).
operation(27,277,1,46).
operation(27,278,9,43).
operation(27,279,5,77).

%--- Job 28
job(28).
operation(28,280,2,57).
operation(28,281,9,16).
operation(28,282,1,71).
operation(28,283,8,25).
operation(28,284,7,50).
operation(28,285,3,41).
operation(28,286,6,58).
operation(28,287,5,71).
operation(28,288,4,9).
operation(28,289,0,32).

%--- Job 29
job(29).
operation(29,290,8,48).
operation(29,291,9,32).
operation(29,292,0,42).
operation(29,293,3,73).
operation(29,294,1,56).
operation(29,295,7,53).
operation(29,296,6,3).
operation(29,297,5,66).
operation(29,298,4,15).
operation(29,299,2,44).

%--- Job 30
job(30).
operation(30,300,6,69).
operation(30,301,7,14).
operation(30,302,1,2).
operation(30,303,8,40).
operation(30,304,4,70).
operation(30,305,9,90).
operation(30,306,3,38).
operation(30,307,2,31).
operation(30,308,5,55).
operation(30,309,0,50).

%--- Job 31
job(31).
operation(31,310,9,100).
operation(31,311,8,14).
operation(31,312,0,55).
operation(31,313,2,5).
operation(31,314,5,12).
operation(31,315,4,79).
operation(31,316,1,68).
operation(31,317,3,83).
operation(31,318,6,89).
operation(31,319,7,78).

%--- Job 32
job(32).
operation(32,320,4,26).
operation(32,321,5,44).
operation(32,322,8,39).
operation(32,323,1,84).
operation(32,324,7,64).
operation(32,325,9,98).
operation(32,326,3,38).
operation(32,327,2,2).
operation(32,328,6,27).
operation(32,329,0,18).

%--- Job 33
job(33).
operation(33,330,3,98).
operation(33,331,2,10).
operation(33,332,9,99).
operation(33,333,8,50).
operation(33,334,0,20).
operation(33,335,6,12).
operation(33,336,4,7).
operation(33,337,1,57).
operation(33,338,7,87).
operation(33,339,5,89).

%--- Job 34
job(34).
operation(34,340,0,64).
operation(34,341,8,63).
operation(34,342,7,98).
operation(34,343,5,31).
operation(34,344,1,30).
operation(34,345,6,62).
operation(34,346,3,11).
operation(34,347,4,89).
operation(34,348,9,31).
operation(34,349,2,34).

%--- Job 35
job(35).
operation(35,350,3,26).
operation(35,351,6,43).
operation(35,352,4,69).
operation(35,353,7,27).
operation(35,354,8,92).
operation(35,355,2,51).
operation(35,356,1,10).
operation(35,357,5,29).
operation(35,358,9,21).
operation(35,359,0,37).

%--- Job 36
job(36).
operation(36,360,8,21).
operation(36,361,5,98).
operation(36,362,0,64).
operation(36,363,6,38).
operation(36,364,2,23).
operation(36,365,1,13).
operation(36,366,7,89).
operation(36,367,9,89).
operation(36,368,4,21).
operation(36,369,3,27).

%--- Job 37
job(37).
operation(37,370,4,39).
operation(37,371,7,32).
operation(37,372,1,67).
operation(37,373,0,33).
operation(37,374,5,16).
operation(37,375,2,43).
operation(37,376,6,62).
operation(37,377,3,42).
operation(37,378,9,70).
operation(37,379,8,90).

%--- Job 38
job(38).
operation(38,380,7,73).
operation(38,381,9,45).
operation(38,382,3,37).
operation(38,383,0,45).
operation(38,384,2,61).
operation(38,385,6,25).
operation(38,386,5,15).
operation(38,387,4,5).
operation(38,388,8,58).
operation(38,389,1,98).

%--- Job 39
job(39).
operation(39,390,7,94).
operation(39,391,0,17).
operation(39,392,6,15).
operation(39,393,5,81).
operation(39,394,9,64).
operation(39,395,3,62).
operation(39,396,1,2).
operation(39,397,8,16).
operation(39,398,2,35).
operation(39,399,4,40).

%--- Job 40
job(40).
operation(40,400,5,32).
operation(40,401,6,37).
operation(40,402,9,11).
operation(40,403,0,25).
operation(40,404,1,37).
operation(40,405,8,21).
operation(40,406,2,76).
operation(40,407,7,52).
operation(40,408,4,56).
operation(40,409,3,87).

%--- Job 41
job(41).
operation(41,410,3,23).
operation(41,411,2,40).
operation(41,412,1,6).
operation(41,413,7,31).
operation(41,414,6,25).
operation(41,415,9,98).
operation(41,416,8,29).
operation(41,417,4,4).
operation(41,418,5,25).
operation(41,419,0,33).

%--- Job 42
job(42).
operation(42,420,8,96).
operation(42,421,9,30).
operation(42,422,1,95).
operation(42,423,3,2).
operation(42,424,6,3).
operation(42,425,2,22).
operation(42,426,0,62).
operation(42,427,4,30).
operation(42,428,7,1).
operation(42,429,5,99).

%--- Job 43
job(43).
operation(43,430,9,54).
operation(43,431,5,3).
operation(43,432,0,78).
operation(43,433,2,43).
operation(43,434,6,90).
operation(43,435,7,88).
operation(43,436,4,1).
operation(43,437,8,97).
operation(43,438,1,30).
operation(43,439,3,96).

%--- Job 44
job(44).
operation(44,440,5,29).
operation(44,441,6,60).
operation(44,442,3,80).
operation(44,443,1,94).
operation(44,444,2,67).
operation(44,445,0,42).
operation(44,446,8,17).
operation(44,447,9,27).
operation(44,448,7,75).
operation(44,449,4,86).

%--- Job 45
job(45).
operation(45,450,1,17).
operation(45,451,5,62).
operation(45,452,2,25).
operation(45,453,7,80).
operation(45,454,6,62).
operation(45,455,9,19).
operation(45,456,8,81).
operation(45,457,3,73).
operation(45,458,0,57).
operation(45,459,4,90).

%--- Job 46
job(46).
operation(46,460,9,31).
operation(46,461,3,54).
operation(46,462,5,28).
operation(46,463,1,19).
operation(46,464,4,4).
operation(46,465,2,34).
operation(46,466,8,64).
operation(46,467,6,46).
operation(46,468,7,60).
operation(46,469,0,27).

%--- Job 47
job(47).
operation(47,470,9,95).
operation(47,471,7,1).
operation(47,472,2,43).
operation(47,473,3,6).
operation(47,474,4,7).
operation(47,475,8,66).
operation(47,476,1,45).
operation(47,477,5,13).
operation(47,478,0,80).
operation(47,479,6,1).

%--- Job 48
job(48).
operation(48,480,3,20).
operation(48,481,7,82).
operation(48,482,0,87).
operation(48,483,1,65).
operation(48,484,6,64).
operation(48,485,8,61).
operation(48,486,2,21).
operation(48,487,5,32).
operation(48,488,9,16).
operation(48,489,4,37).

%--- Job 49
job(49).
operation(49,490,0,49).
operation(49,491,3,54).
operation(49,492,2,31).
operation(49,493,8,69).
operation(49,494,1,21).
operation(49,495,5,2).
operation(49,496,6,73).
operation(49,497,9,35).
operation(49,498,4,66).
operation(49,499,7,82).

