% ========= Metadata =========
   meta(name,swv12).
   meta(num_jobs,50).
   meta(num_machines,10).
   meta(num_operations,500).
   meta(optimum,None).
   meta(upper_bound,2977).
   meta(lower_bound,2972).
% ==========================


machine(0..10).

%--- Job 0
job(0).
operation(0,0,0,92).
operation(0,1,4,49).
operation(0,2,1,93).
operation(0,3,3,48).
operation(0,4,2,1).
operation(0,5,7,52).
operation(0,6,6,57).
operation(0,7,9,16).
operation(0,8,5,6).
operation(0,9,8,6).

%--- Job 1
job(1).
operation(1,10,4,82).
operation(1,11,3,25).
operation(1,12,2,69).
operation(1,13,1,86).
operation(1,14,0,54).
operation(1,15,6,15).
operation(1,16,5,31).
operation(1,17,9,5).
operation(1,18,7,6).
operation(1,19,8,18).

%--- Job 2
job(2).
operation(2,20,0,31).
operation(2,21,1,26).
operation(2,22,3,46).
operation(2,23,2,49).
operation(2,24,4,48).
operation(2,25,8,74).
operation(2,26,7,82).
operation(2,27,5,47).
operation(2,28,9,93).
operation(2,29,6,91).

%--- Job 3
job(3).
operation(3,30,0,34).
operation(3,31,4,37).
operation(3,32,1,82).
operation(3,33,3,25).
operation(3,34,2,43).
operation(3,35,6,11).
operation(3,36,9,71).
operation(3,37,5,55).
operation(3,38,7,34).
operation(3,39,8,77).

%--- Job 4
job(4).
operation(4,40,4,22).
operation(4,41,0,91).
operation(4,42,3,54).
operation(4,43,2,49).
operation(4,44,1,97).
operation(4,45,9,2).
operation(4,46,7,46).
operation(4,47,5,98).
operation(4,48,6,27).
operation(4,49,8,89).

%--- Job 5
job(5).
operation(5,50,2,46).
operation(5,51,3,70).
operation(5,52,1,3).
operation(5,53,0,44).
operation(5,54,4,24).
operation(5,55,9,65).
operation(5,56,6,60).
operation(5,57,5,94).
operation(5,58,8,58).
operation(5,59,7,22).

%--- Job 6
job(6).
operation(6,60,3,53).
operation(6,61,0,99).
operation(6,62,1,80).
operation(6,63,2,74).
operation(6,64,4,29).
operation(6,65,6,72).
operation(6,66,7,54).
operation(6,67,5,98).
operation(6,68,8,60).
operation(6,69,9,69).

%--- Job 7
job(7).
operation(7,70,3,96).
operation(7,71,1,87).
operation(7,72,0,36).
operation(7,73,2,57).
operation(7,74,4,7).
operation(7,75,8,36).
operation(7,76,9,26).
operation(7,77,5,94).
operation(7,78,6,47).
operation(7,79,7,70).

%--- Job 8
job(8).
operation(8,80,3,5).
operation(8,81,2,47).
operation(8,82,1,59).
operation(8,83,0,57).
operation(8,84,4,28).
operation(8,85,9,24).
operation(8,86,8,79).
operation(8,87,6,19).
operation(8,88,5,44).
operation(8,89,7,35).

%--- Job 9
job(9).
operation(9,90,0,96).
operation(9,91,1,4).
operation(9,92,3,60).
operation(9,93,2,43).
operation(9,94,4,39).
operation(9,95,7,97).
operation(9,96,5,2).
operation(9,97,9,81).
operation(9,98,6,89).
operation(9,99,8,91).

%--- Job 10
job(10).
operation(10,100,2,23).
operation(10,101,4,74).
operation(10,102,3,98).
operation(10,103,0,24).
operation(10,104,1,75).
operation(10,105,9,57).
operation(10,106,8,93).
operation(10,107,6,74).
operation(10,108,5,10).
operation(10,109,7,44).

%--- Job 11
job(11).
operation(11,110,3,36).
operation(11,111,4,5).
operation(11,112,2,36).
operation(11,113,0,49).
operation(11,114,1,90).
operation(11,115,8,62).
operation(11,116,5,74).
operation(11,117,9,4).
operation(11,118,6,85).
operation(11,119,7,53).

%--- Job 12
job(12).
operation(12,120,2,44).
operation(12,121,1,47).
operation(12,122,3,75).
operation(12,123,4,81).
operation(12,124,0,30).
operation(12,125,7,42).
operation(12,126,8,100).
operation(12,127,9,81).
operation(12,128,6,29).
operation(12,129,5,31).

%--- Job 13
job(13).
operation(13,130,1,2).
operation(13,131,0,18).
operation(13,132,3,88).
operation(13,133,2,27).
operation(13,134,4,5).
operation(13,135,5,36).
operation(13,136,7,30).
operation(13,137,6,51).
operation(13,138,8,51).
operation(13,139,9,31).

%--- Job 14
job(14).
operation(14,140,1,21).
operation(14,141,0,57).
operation(14,142,3,100).
operation(14,143,2,100).
operation(14,144,4,59).
operation(14,145,8,77).
operation(14,146,7,21).
operation(14,147,5,98).
operation(14,148,6,38).
operation(14,149,9,84).

%--- Job 15
job(15).
operation(15,150,4,97).
operation(15,151,2,72).
operation(15,152,1,70).
operation(15,153,3,99).
operation(15,154,0,42).
operation(15,155,6,94).
operation(15,156,5,59).
operation(15,157,9,90).
operation(15,158,8,78).
operation(15,159,7,13).

%--- Job 16
job(16).
operation(16,160,3,16).
operation(16,161,2,19).
operation(16,162,1,70).
operation(16,163,0,7).
operation(16,164,4,74).
operation(16,165,6,7).
operation(16,166,5,50).
operation(16,167,9,74).
operation(16,168,8,46).
operation(16,169,7,88).

%--- Job 17
job(17).
operation(17,170,3,45).
operation(17,171,4,91).
operation(17,172,2,28).
operation(17,173,0,52).
operation(17,174,1,12).
operation(17,175,5,45).
operation(17,176,6,7).
operation(17,177,7,15).
operation(17,178,9,22).
operation(17,179,8,31).

%--- Job 18
job(18).
operation(18,180,3,56).
operation(18,181,2,3).
operation(18,182,1,8).
operation(18,183,4,25).
operation(18,184,0,90).
operation(18,185,8,99).
operation(18,186,6,22).
operation(18,187,9,65).
operation(18,188,7,51).
operation(18,189,5,31).

%--- Job 19
job(19).
operation(19,190,0,23).
operation(19,191,3,28).
operation(19,192,1,49).
operation(19,193,2,5).
operation(19,194,4,17).
operation(19,195,7,40).
operation(19,196,9,30).
operation(19,197,5,62).
operation(19,198,8,65).
operation(19,199,6,84).

%--- Job 20
job(20).
operation(20,200,2,88).
operation(20,201,0,86).
operation(20,202,4,8).
operation(20,203,1,41).
operation(20,204,3,12).
operation(20,205,6,67).
operation(20,206,9,77).
operation(20,207,5,94).
operation(20,208,7,80).
operation(20,209,8,11).

%--- Job 21
job(21).
operation(21,210,4,81).
operation(21,211,3,42).
operation(21,212,0,19).
operation(21,213,2,100).
operation(21,214,1,10).
operation(21,215,5,23).
operation(21,216,9,71).
operation(21,217,8,18).
operation(21,218,6,93).
operation(21,219,7,36).

%--- Job 22
job(22).
operation(22,220,4,74).
operation(22,221,2,73).
operation(22,222,3,63).
operation(22,223,1,9).
operation(22,224,0,51).
operation(22,225,8,39).
operation(22,226,7,7).
operation(22,227,6,96).
operation(22,228,5,81).
operation(22,229,9,22).

%--- Job 23
job(23).
operation(23,230,1,1).
operation(23,231,3,44).
operation(23,232,0,66).
operation(23,233,4,19).
operation(23,234,2,65).
operation(23,235,7,10).
operation(23,236,6,23).
operation(23,237,8,26).
operation(23,238,9,76).
operation(23,239,5,77).

%--- Job 24
job(24).
operation(24,240,1,54).
operation(24,241,2,18).
operation(24,242,4,99).
operation(24,243,0,79).
operation(24,244,3,22).
operation(24,245,5,2).
operation(24,246,6,42).
operation(24,247,8,54).
operation(24,248,7,90).
operation(24,249,9,28).

%--- Job 25
job(25).
operation(25,250,3,16).
operation(25,251,4,1).
operation(25,252,1,28).
operation(25,253,0,54).
operation(25,254,2,97).
operation(25,255,5,71).
operation(25,256,6,53).
operation(25,257,8,32).
operation(25,258,7,26).
operation(25,259,9,28).

%--- Job 26
job(26).
operation(26,260,0,82).
operation(26,261,3,5).
operation(26,262,2,18).
operation(26,263,4,71).
operation(26,264,1,50).
operation(26,265,5,41).
operation(26,266,7,62).
operation(26,267,9,89).
operation(26,268,6,93).
operation(26,269,8,54).

%--- Job 27
job(27).
operation(27,270,2,63).
operation(27,271,3,59).
operation(27,272,0,42).
operation(27,273,1,74).
operation(27,274,4,32).
operation(27,275,5,50).
operation(27,276,6,21).
operation(27,277,7,29).
operation(27,278,8,83).
operation(27,279,9,64).

%--- Job 28
job(28).
operation(28,280,4,29).
operation(28,281,2,76).
operation(28,282,1,6).
operation(28,283,3,44).
operation(28,284,0,4).
operation(28,285,9,81).
operation(28,286,5,29).
operation(28,287,7,95).
operation(28,288,8,66).
operation(28,289,6,89).

%--- Job 29
job(29).
operation(29,290,3,55).
operation(29,291,4,84).
operation(29,292,1,36).
operation(29,293,0,42).
operation(29,294,2,64).
operation(29,295,5,81).
operation(29,296,8,85).
operation(29,297,6,76).
operation(29,298,7,4).
operation(29,299,9,16).

%--- Job 30
job(30).
operation(30,300,4,100).
operation(30,301,0,46).
operation(30,302,1,69).
operation(30,303,3,41).
operation(30,304,2,3).
operation(30,305,6,18).
operation(30,306,5,41).
operation(30,307,7,94).
operation(30,308,8,97).
operation(30,309,9,30).

%--- Job 31
job(31).
operation(31,310,3,34).
operation(31,311,4,35).
operation(31,312,2,18).
operation(31,313,1,58).
operation(31,314,0,98).
operation(31,315,9,78).
operation(31,316,8,17).
operation(31,317,5,53).
operation(31,318,6,85).
operation(31,319,7,86).

%--- Job 32
job(32).
operation(32,320,4,68).
operation(32,321,2,89).
operation(32,322,1,99).
operation(32,323,0,3).
operation(32,324,3,92).
operation(32,325,5,10).
operation(32,326,6,52).
operation(32,327,7,30).
operation(32,328,8,66).
operation(32,329,9,69).

%--- Job 33
job(33).
operation(33,330,0,21).
operation(33,331,3,65).
operation(33,332,4,19).
operation(33,333,2,14).
operation(33,334,1,76).
operation(33,335,9,84).
operation(33,336,6,45).
operation(33,337,5,24).
operation(33,338,8,54).
operation(33,339,7,73).

%--- Job 34
job(34).
operation(34,340,4,47).
operation(34,341,0,68).
operation(34,342,2,87).
operation(34,343,3,92).
operation(34,344,1,96).
operation(34,345,6,29).
operation(34,346,5,90).
operation(34,347,8,29).
operation(34,348,7,39).
operation(34,349,9,100).

%--- Job 35
job(35).
operation(35,350,2,35).
operation(35,351,0,60).
operation(35,352,4,61).
operation(35,353,1,61).
operation(35,354,3,72).
operation(35,355,9,57).
operation(35,356,8,94).
operation(35,357,5,77).
operation(35,358,7,1).
operation(35,359,6,53).

%--- Job 36
job(36).
operation(36,360,3,85).
operation(36,361,2,38).
operation(36,362,0,79).
operation(36,363,4,43).
operation(36,364,1,71).
operation(36,365,6,44).
operation(36,366,5,87).
operation(36,367,8,61).
operation(36,368,7,51).
operation(36,369,9,37).

%--- Job 37
job(37).
operation(37,370,1,100).
operation(37,371,2,33).
operation(37,372,3,94).
operation(37,373,0,59).
operation(37,374,4,25).
operation(37,375,5,88).
operation(37,376,9,50).
operation(37,377,6,19).
operation(37,378,8,4).
operation(37,379,7,66).

%--- Job 38
job(38).
operation(38,380,2,8).
operation(38,381,0,85).
operation(38,382,1,80).
operation(38,383,4,75).
operation(38,384,3,1).
operation(38,385,7,17).
operation(38,386,9,32).
operation(38,387,6,60).
operation(38,388,5,30).
operation(38,389,8,57).

%--- Job 39
job(39).
operation(39,390,4,25).
operation(39,391,2,98).
operation(39,392,1,94).
operation(39,393,3,49).
operation(39,394,0,34).
operation(39,395,9,37).
operation(39,396,7,80).
operation(39,397,6,50).
operation(39,398,8,25).
operation(39,399,5,72).

%--- Job 40
job(40).
operation(40,400,3,51).
operation(40,401,4,49).
operation(40,402,1,53).
operation(40,403,2,7).
operation(40,404,0,73).
operation(40,405,6,96).
operation(40,406,7,19).
operation(40,407,9,41).
operation(40,408,5,55).
operation(40,409,8,42).

%--- Job 41
job(41).
operation(41,410,0,57).
operation(41,411,1,86).
operation(41,412,2,1).
operation(41,413,4,61).
operation(41,414,3,66).
operation(41,415,6,28).
operation(41,416,5,56).
operation(41,417,7,68).
operation(41,418,8,21).
operation(41,419,9,65).

%--- Job 42
job(42).
operation(42,420,2,98).
operation(42,421,1,100).
operation(42,422,0,47).
operation(42,423,4,28).
operation(42,424,3,4).
operation(42,425,7,34).
operation(42,426,9,55).
operation(42,427,5,32).
operation(42,428,6,72).
operation(42,429,8,66).

%--- Job 43
job(43).
operation(43,430,4,2).
operation(43,431,0,74).
operation(43,432,2,20).
operation(43,433,1,39).
operation(43,434,3,63).
operation(43,435,5,88).
operation(43,436,9,3).
operation(43,437,7,22).
operation(43,438,6,8).
operation(43,439,8,73).

%--- Job 44
job(44).
operation(44,440,2,44).
operation(44,441,0,1).
operation(44,442,3,52).
operation(44,443,1,43).
operation(44,444,4,4).
operation(44,445,6,36).
operation(44,446,9,75).
operation(44,447,8,58).
operation(44,448,5,61).
operation(44,449,7,38).

%--- Job 45
job(45).
operation(45,450,2,21).
operation(45,451,4,6).
operation(45,452,3,32).
operation(45,453,1,74).
operation(45,454,0,57).
operation(45,455,5,72).
operation(45,456,8,10).
operation(45,457,9,34).
operation(45,458,6,91).
operation(45,459,7,94).

%--- Job 46
job(46).
operation(46,460,4,26).
operation(46,461,0,59).
operation(46,462,3,53).
operation(46,463,1,45).
operation(46,464,2,23).
operation(46,465,5,55).
operation(46,466,8,12).
operation(46,467,7,34).
operation(46,468,6,98).
operation(46,469,9,43).

%--- Job 47
job(47).
operation(47,470,2,4).
operation(47,471,1,53).
operation(47,472,4,57).
operation(47,473,3,95).
operation(47,474,0,6).
operation(47,475,6,30).
operation(47,476,8,1).
operation(47,477,7,92).
operation(47,478,9,20).
operation(47,479,5,86).

%--- Job 48
job(48).
operation(48,480,1,98).
operation(48,481,2,77).
operation(48,482,3,65).
operation(48,483,4,51).
operation(48,484,0,85).
operation(48,485,7,23).
operation(48,486,6,79).
operation(48,487,5,30).
operation(48,488,8,41).
operation(48,489,9,17).

%--- Job 49
job(49).
operation(49,490,4,58).
operation(49,491,2,43).
operation(49,492,3,14).
operation(49,493,0,74).
operation(49,494,1,64).
operation(49,495,7,37).
operation(49,496,8,78).
operation(49,497,6,33).
operation(49,498,9,42).
operation(49,499,5,80).

