% ========= Metadata =========
   meta(name,swv17).
   meta(num_jobs,50).
   meta(num_machines,10).
   meta(num_operations,500).
   meta(optimum,2794).
   meta(upper_bound,2794).
   meta(lower_bound,2794).
% ==========================


machine(0..10).

%--- Job 0
job(0).
operation(0,0,7,9).
operation(0,1,2,57).
operation(0,2,9,62).
operation(0,3,5,34).
operation(0,4,6,83).
operation(0,5,0,33).
operation(0,6,1,80).
operation(0,7,4,46).
operation(0,8,3,21).
operation(0,9,8,89).

%--- Job 1
job(1).
operation(1,10,9,82).
operation(1,11,1,35).
operation(1,12,8,37).
operation(1,13,5,26).
operation(1,14,6,21).
operation(1,15,3,78).
operation(1,16,7,64).
operation(1,17,4,33).
operation(1,18,2,40).
operation(1,19,0,21).

%--- Job 2
job(2).
operation(2,20,7,14).
operation(2,21,5,49).
operation(2,22,3,48).
operation(2,23,9,34).
operation(2,24,4,52).
operation(2,25,1,16).
operation(2,26,2,78).
operation(2,27,0,24).
operation(2,28,8,58).
operation(2,29,6,43).

%--- Job 3
job(3).
operation(3,30,2,94).
operation(3,31,3,86).
operation(3,32,8,41).
operation(3,33,5,27).
operation(3,34,7,29).
operation(3,35,6,53).
operation(3,36,9,5).
operation(3,37,0,36).
operation(3,38,4,98).
operation(3,39,1,37).

%--- Job 4
job(4).
operation(4,40,7,55).
operation(4,41,1,87).
operation(4,42,8,51).
operation(4,43,5,29).
operation(4,44,9,93).
operation(4,45,3,51).
operation(4,46,0,54).
operation(4,47,6,85).
operation(4,48,2,20).
operation(4,49,4,29).

%--- Job 5
job(5).
operation(5,50,2,88).
operation(5,51,1,98).
operation(5,52,3,67).
operation(5,53,8,41).
operation(5,54,6,23).
operation(5,55,9,70).
operation(5,56,7,26).
operation(5,57,4,28).
operation(5,58,5,17).
operation(5,59,0,87).

%--- Job 6
job(6).
operation(6,60,2,78).
operation(6,61,0,18).
operation(6,62,4,43).
operation(6,63,3,86).
operation(6,64,9,78).
operation(6,65,6,43).
operation(6,66,7,62).
operation(6,67,8,42).
operation(6,68,1,44).
operation(6,69,5,9).

%--- Job 7
job(7).
operation(7,70,9,37).
operation(7,71,4,89).
operation(7,72,3,26).
operation(7,73,6,59).
operation(7,74,0,89).
operation(7,75,5,90).
operation(7,76,1,91).
operation(7,77,8,28).
operation(7,78,7,37).
operation(7,79,2,51).

%--- Job 8
job(8).
operation(8,80,3,82).
operation(8,81,2,31).
operation(8,82,1,98).
operation(8,83,5,25).
operation(8,84,0,16).
operation(8,85,7,23).
operation(8,86,9,92).
operation(8,87,4,89).
operation(8,88,6,32).
operation(8,89,8,12).

%--- Job 9
job(9).
operation(9,90,6,66).
operation(9,91,1,58).
operation(9,92,5,14).
operation(9,93,3,42).
operation(9,94,0,62).
operation(9,95,8,66).
operation(9,96,4,46).
operation(9,97,7,88).
operation(9,98,2,89).
operation(9,99,9,97).

%--- Job 10
job(10).
operation(10,100,8,94).
operation(10,101,9,11).
operation(10,102,6,3).
operation(10,103,1,86).
operation(10,104,2,4).
operation(10,105,5,19).
operation(10,106,7,93).
operation(10,107,4,43).
operation(10,108,0,78).
operation(10,109,3,11).

%--- Job 11
job(11).
operation(11,110,5,22).
operation(11,111,1,87).
operation(11,112,9,61).
operation(11,113,2,2).
operation(11,114,3,15).
operation(11,115,6,37).
operation(11,116,7,81).
operation(11,117,0,17).
operation(11,118,8,31).
operation(11,119,4,73).

%--- Job 12
job(12).
operation(12,120,6,28).
operation(12,121,0,86).
operation(12,122,3,54).
operation(12,123,2,68).
operation(12,124,4,63).
operation(12,125,1,33).
operation(12,126,8,22).
operation(12,127,5,35).
operation(12,128,9,84).
operation(12,129,7,15).

%--- Job 13
job(13).
operation(13,130,6,18).
operation(13,131,1,2).
operation(13,132,2,23).
operation(13,133,8,49).
operation(13,134,7,82).
operation(13,135,9,8).
operation(13,136,4,73).
operation(13,137,5,31).
operation(13,138,3,20).
operation(13,139,0,1).

%--- Job 14
job(14).
operation(14,140,7,49).
operation(14,141,5,8).
operation(14,142,2,36).
operation(14,143,8,31).
operation(14,144,6,47).
operation(14,145,3,90).
operation(14,146,0,7).
operation(14,147,9,6).
operation(14,148,1,44).
operation(14,149,4,51).

%--- Job 15
job(15).
operation(15,150,4,43).
operation(15,151,1,95).
operation(15,152,0,18).
operation(15,153,9,99).
operation(15,154,7,98).
operation(15,155,3,26).
operation(15,156,8,99).
operation(15,157,5,90).
operation(15,158,2,24).
operation(15,159,6,91).

%--- Job 16
job(16).
operation(16,160,1,49).
operation(16,161,6,69).
operation(16,162,3,73).
operation(16,163,9,52).
operation(16,164,0,10).
operation(16,165,7,41).
operation(16,166,8,42).
operation(16,167,5,96).
operation(16,168,4,85).
operation(16,169,2,76).

%--- Job 17
job(17).
operation(17,170,0,5).
operation(17,171,1,69).
operation(17,172,3,38).
operation(17,173,7,35).
operation(17,174,5,23).
operation(17,175,2,40).
operation(17,176,8,17).
operation(17,177,4,33).
operation(17,178,6,99).
operation(17,179,9,82).

%--- Job 18
job(18).
operation(18,180,3,42).
operation(18,181,1,93).
operation(18,182,4,90).
operation(18,183,6,88).
operation(18,184,2,70).
operation(18,185,8,11).
operation(18,186,9,54).
operation(18,187,7,76).
operation(18,188,5,40).
operation(18,189,0,94).

%--- Job 19
job(19).
operation(19,190,5,88).
operation(19,191,9,44).
operation(19,192,0,63).
operation(19,193,7,92).
operation(19,194,1,4).
operation(19,195,4,91).
operation(19,196,6,92).
operation(19,197,8,53).
operation(19,198,3,52).
operation(19,199,2,38).

%--- Job 20
job(20).
operation(20,200,5,83).
operation(20,201,3,75).
operation(20,202,1,44).
operation(20,203,2,79).
operation(20,204,7,63).
operation(20,205,6,32).
operation(20,206,0,10).
operation(20,207,4,2).
operation(20,208,9,6).
operation(20,209,8,56).

%--- Job 21
job(21).
operation(21,210,7,71).
operation(21,211,0,23).
operation(21,212,5,93).
operation(21,213,3,44).
operation(21,214,6,36).
operation(21,215,4,27).
operation(21,216,2,96).
operation(21,217,1,23).
operation(21,218,9,35).
operation(21,219,8,21).

%--- Job 22
job(22).
operation(22,220,5,42).
operation(22,221,2,43).
operation(22,222,6,37).
operation(22,223,9,98).
operation(22,224,0,55).
operation(22,225,3,35).
operation(22,226,4,45).
operation(22,227,1,8).
operation(22,228,8,5).
operation(22,229,7,100).

%--- Job 23
job(23).
operation(23,230,0,40).
operation(23,231,8,34).
operation(23,232,2,7).
operation(23,233,9,17).
operation(23,234,5,60).
operation(23,235,4,98).
operation(23,236,7,34).
operation(23,237,6,23).
operation(23,238,1,37).
operation(23,239,3,58).

%--- Job 24
job(24).
operation(24,240,9,87).
operation(24,241,2,39).
operation(24,242,3,23).
operation(24,243,8,48).
operation(24,244,6,83).
operation(24,245,7,50).
operation(24,246,5,9).
operation(24,247,1,49).
operation(24,248,0,37).
operation(24,249,4,42).

%--- Job 25
job(25).
operation(25,250,6,60).
operation(25,251,5,3).
operation(25,252,2,60).
operation(25,253,7,40).
operation(25,254,0,54).
operation(25,255,1,68).
operation(25,256,4,49).
operation(25,257,8,50).
operation(25,258,9,22).
operation(25,259,3,34).

%--- Job 26
job(26).
operation(26,260,5,22).
operation(26,261,1,55).
operation(26,262,2,32).
operation(26,263,0,83).
operation(26,264,8,38).
operation(26,265,4,22).
operation(26,266,6,29).
operation(26,267,7,23).
operation(26,268,9,59).
operation(26,269,3,90).

%--- Job 27
job(27).
operation(27,270,9,51).
operation(27,271,2,27).
operation(27,272,6,81).
operation(27,273,8,87).
operation(27,274,0,79).
operation(27,275,7,1).
operation(27,276,3,14).
operation(27,277,5,73).
operation(27,278,4,25).
operation(27,279,1,14).

%--- Job 28
job(28).
operation(28,280,6,88).
operation(28,281,1,46).
operation(28,282,5,16).
operation(28,283,2,62).
operation(28,284,9,95).
operation(28,285,7,63).
operation(28,286,4,78).
operation(28,287,0,9).
operation(28,288,3,68).
operation(28,289,8,37).

%--- Job 29
job(29).
operation(29,290,4,77).
operation(29,291,2,13).
operation(29,292,8,96).
operation(29,293,3,61).
operation(29,294,0,21).
operation(29,295,7,39).
operation(29,296,5,12).
operation(29,297,6,49).
operation(29,298,9,73).
operation(29,299,1,86).

%--- Job 30
job(30).
operation(30,300,7,91).
operation(30,301,5,14).
operation(30,302,3,37).
operation(30,303,0,17).
operation(30,304,9,49).
operation(30,305,4,27).
operation(30,306,1,68).
operation(30,307,2,60).
operation(30,308,6,42).
operation(30,309,8,15).

%--- Job 31
job(31).
operation(31,310,9,13).
operation(31,311,4,25).
operation(31,312,6,62).
operation(31,313,0,4).
operation(31,314,1,31).
operation(31,315,8,76).
operation(31,316,5,3).
operation(31,317,7,8).
operation(31,318,3,26).
operation(31,319,2,95).

%--- Job 32
job(32).
operation(32,320,7,45).
operation(32,321,5,50).
operation(32,322,1,14).
operation(32,323,0,69).
operation(32,324,9,43).
operation(32,325,4,1).
operation(32,326,6,73).
operation(32,327,8,35).
operation(32,328,3,1).
operation(32,329,2,61).

%--- Job 33
job(33).
operation(33,330,4,57).
operation(33,331,1,1).
operation(33,332,0,74).
operation(33,333,8,1).
operation(33,334,6,96).
operation(33,335,2,92).
operation(33,336,7,85).
operation(33,337,5,42).
operation(33,338,3,12).
operation(33,339,9,38).

%--- Job 34
job(34).
operation(34,340,7,49).
operation(34,341,5,31).
operation(34,342,8,79).
operation(34,343,6,83).
operation(34,344,1,40).
operation(34,345,4,65).
operation(34,346,3,34).
operation(34,347,2,32).
operation(34,348,9,97).
operation(34,349,0,25).

%--- Job 35
job(35).
operation(35,350,9,24).
operation(35,351,5,40).
operation(35,352,4,81).
operation(35,353,3,10).
operation(35,354,6,59).
operation(35,355,8,83).
operation(35,356,2,66).
operation(35,357,1,28).
operation(35,358,7,33).
operation(35,359,0,31).

%--- Job 36
job(36).
operation(36,360,5,33).
operation(36,361,4,39).
operation(36,362,3,50).
operation(36,363,1,96).
operation(36,364,7,62).
operation(36,365,2,72).
operation(36,366,8,42).
operation(36,367,6,86).
operation(36,368,9,66).
operation(36,369,0,80).

%--- Job 37
job(37).
operation(37,370,3,88).
operation(37,371,7,47).
operation(37,372,0,35).
operation(37,373,4,69).
operation(37,374,1,79).
operation(37,375,9,61).
operation(37,376,2,25).
operation(37,377,8,56).
operation(37,378,5,68).
operation(37,379,6,96).

%--- Job 38
job(38).
operation(38,380,9,23).
operation(38,381,6,95).
operation(38,382,0,42).
operation(38,383,1,84).
operation(38,384,8,57).
operation(38,385,4,42).
operation(38,386,2,2).
operation(38,387,5,79).
operation(38,388,3,29).
operation(38,389,7,90).

%--- Job 39
job(39).
operation(39,390,9,96).
operation(39,391,8,21).
operation(39,392,4,17).
operation(39,393,7,12).
operation(39,394,1,25).
operation(39,395,2,9).
operation(39,396,6,7).
operation(39,397,5,26).
operation(39,398,0,81).
operation(39,399,3,51).

%--- Job 40
job(40).
operation(40,400,1,63).
operation(40,401,7,16).
operation(40,402,6,40).
operation(40,403,2,22).
operation(40,404,9,48).
operation(40,405,5,87).
operation(40,406,0,15).
operation(40,407,8,24).
operation(40,408,3,37).
operation(40,409,4,55).

%--- Job 41
job(41).
operation(41,410,7,95).
operation(41,411,0,60).
operation(41,412,3,62).
operation(41,413,2,7).
operation(41,414,9,2).
operation(41,415,8,81).
operation(41,416,5,83).
operation(41,417,4,64).
operation(41,418,1,68).
operation(41,419,6,66).

%--- Job 42
job(42).
operation(42,420,3,24).
operation(42,421,7,60).
operation(42,422,6,35).
operation(42,423,2,77).
operation(42,424,1,85).
operation(42,425,8,57).
operation(42,426,9,29).
operation(42,427,5,59).
operation(42,428,4,53).
operation(42,429,0,14).

%--- Job 43
job(43).
operation(43,430,1,24).
operation(43,431,6,30).
operation(43,432,0,9).
operation(43,433,3,89).
operation(43,434,8,72).
operation(43,435,4,77).
operation(43,436,2,7).
operation(43,437,5,23).
operation(43,438,9,73).
operation(43,439,7,35).

%--- Job 44
job(44).
operation(44,440,0,66).
operation(44,441,8,12).
operation(44,442,1,9).
operation(44,443,5,50).
operation(44,444,2,14).
operation(44,445,9,76).
operation(44,446,4,90).
operation(44,447,3,43).
operation(44,448,7,48).
operation(44,449,6,63).

%--- Job 45
job(45).
operation(45,450,3,97).
operation(45,451,1,29).
operation(45,452,0,59).
operation(45,453,4,64).
operation(45,454,9,17).
operation(45,455,2,77).
operation(45,456,5,60).
operation(45,457,7,16).
operation(45,458,6,61).
operation(45,459,8,40).

%--- Job 46
job(46).
operation(46,460,9,5).
operation(46,461,4,22).
operation(46,462,2,3).
operation(46,463,8,63).
operation(46,464,5,1).
operation(46,465,7,23).
operation(46,466,0,1).
operation(46,467,3,61).
operation(46,468,1,92).
operation(46,469,6,19).

%--- Job 47
job(47).
operation(47,470,6,91).
operation(47,471,8,74).
operation(47,472,1,88).
operation(47,473,5,2).
operation(47,474,7,61).
operation(47,475,4,39).
operation(47,476,0,35).
operation(47,477,2,23).
operation(47,478,9,84).
operation(47,479,3,27).

%--- Job 48
job(48).
operation(48,480,8,87).
operation(48,481,5,58).
operation(48,482,7,44).
operation(48,483,1,6).
operation(48,484,6,22).
operation(48,485,3,57).
operation(48,486,9,78).
operation(48,487,4,19).
operation(48,488,2,74).
operation(48,489,0,6).

%--- Job 49
job(49).
operation(49,490,4,6).
operation(49,491,1,94).
operation(49,492,0,45).
operation(49,493,2,54).
operation(49,494,9,67).
operation(49,495,7,90).
operation(49,496,5,19).
operation(49,497,8,72).
operation(49,498,6,70).
operation(49,499,3,58).

