% ========= Metadata =========
   meta(name,swv10).
   meta(num_jobs,20).
   meta(num_machines,15).
   meta(num_operations,300).
   meta(optimum,None).
   meta(upper_bound,1743).
   meta(lower_bound,1663).
% ==========================


machine(0..15).

%--- Job 0
job(0).
operation(0,0,3,8).
operation(0,1,2,73).
operation(0,2,1,79).
operation(0,3,0,95).
operation(0,4,6,69).
operation(0,5,4,9).
operation(0,6,5,5).
operation(0,7,8,85).
operation(0,8,9,52).
operation(0,9,11,43).
operation(0,10,14,32).
operation(0,11,7,91).
operation(0,12,10,24).
operation(0,13,13,89).
operation(0,14,12,38).

%--- Job 1
job(1).
operation(1,15,6,45).
operation(1,16,1,70).
operation(1,17,4,84).
operation(1,18,3,24).
operation(1,19,5,18).
operation(1,20,0,20).
operation(1,21,2,71).
operation(1,22,8,21).
operation(1,23,7,60).
operation(1,24,9,98).
operation(1,25,10,70).
operation(1,26,13,52).
operation(1,27,12,34).
operation(1,28,11,23).
operation(1,29,14,52).

%--- Job 2
job(2).
operation(2,30,6,16).
operation(2,31,4,68).
operation(2,32,1,85).
operation(2,33,0,39).
operation(2,34,5,40).
operation(2,35,2,98).
operation(2,36,3,61).
operation(2,37,10,77).
operation(2,38,7,60).
operation(2,39,11,73).
operation(2,40,9,66).
operation(2,41,14,84).
operation(2,42,8,16).
operation(2,43,13,43).
operation(2,44,12,88).

%--- Job 3
job(3).
operation(3,45,0,72).
operation(3,46,1,17).
operation(3,47,3,68).
operation(3,48,4,89).
operation(3,49,2,94).
operation(3,50,6,98).
operation(3,51,5,56).
operation(3,52,10,88).
operation(3,53,13,27).
operation(3,54,9,60).
operation(3,55,12,61).
operation(3,56,8,8).
operation(3,57,7,88).
operation(3,58,11,48).
operation(3,59,14,65).

%--- Job 4
job(4).
operation(4,60,6,78).
operation(4,61,2,24).
operation(4,62,5,28).
operation(4,63,0,73).
operation(4,64,4,21).
operation(4,65,1,69).
operation(4,66,3,52).
operation(4,67,14,32).
operation(4,68,8,83).
operation(4,69,11,48).
operation(4,70,10,29).
operation(4,71,13,48).
operation(4,72,12,92).
operation(4,73,9,43).
operation(4,74,7,82).

%--- Job 5
job(5).
operation(5,75,4,54).
operation(5,76,6,31).
operation(5,77,5,14).
operation(5,78,3,47).
operation(5,79,0,82).
operation(5,80,1,75).
operation(5,81,2,4).
operation(5,82,8,31).
operation(5,83,12,72).
operation(5,84,7,58).
operation(5,85,9,45).
operation(5,86,13,91).
operation(5,87,14,31).
operation(5,88,11,61).
operation(5,89,10,27).

%--- Job 6
job(6).
operation(6,90,4,88).
operation(6,91,1,28).
operation(6,92,5,92).
operation(6,93,6,62).
operation(6,94,3,93).
operation(6,95,0,14).
operation(6,96,2,65).
operation(6,97,7,33).
operation(6,98,9,44).
operation(6,99,8,31).
operation(6,100,14,32).
operation(6,101,11,72).
operation(6,102,13,47).
operation(6,103,12,61).
operation(6,104,10,34).

%--- Job 7
job(7).
operation(7,105,0,52).
operation(7,106,1,59).
operation(7,107,5,98).
operation(7,108,3,6).
operation(7,109,2,19).
operation(7,110,6,53).
operation(7,111,4,39).
operation(7,112,8,74).
operation(7,113,12,48).
operation(7,114,10,33).
operation(7,115,13,49).
operation(7,116,11,92).
operation(7,117,7,22).
operation(7,118,14,41).
operation(7,119,9,37).

%--- Job 8
job(8).
operation(8,120,0,2).
operation(8,121,6,85).
operation(8,122,3,34).
operation(8,123,2,51).
operation(8,124,4,97).
operation(8,125,5,95).
operation(8,126,1,73).
operation(8,127,14,61).
operation(8,128,9,28).
operation(8,129,12,73).
operation(8,130,8,21).
operation(8,131,11,85).
operation(8,132,7,75).
operation(8,133,13,42).
operation(8,134,10,7).

%--- Job 9
job(9).
operation(9,135,5,94).
operation(9,136,1,28).
operation(9,137,0,77).
operation(9,138,2,56).
operation(9,139,6,79).
operation(9,140,4,2).
operation(9,141,3,82).
operation(9,142,9,88).
operation(9,143,10,93).
operation(9,144,12,44).
operation(9,145,14,5).
operation(9,146,8,96).
operation(9,147,7,34).
operation(9,148,13,56).
operation(9,149,11,41).

%--- Job 10
job(10).
operation(10,150,2,15).
operation(10,151,5,88).
operation(10,152,6,18).
operation(10,153,3,14).
operation(10,154,1,82).
operation(10,155,0,58).
operation(10,156,4,33).
operation(10,157,13,19).
operation(10,158,10,42).
operation(10,159,9,36).
operation(10,160,14,57).
operation(10,161,12,85).
operation(10,162,7,3).
operation(10,163,11,62).
operation(10,164,8,36).

%--- Job 11
job(11).
operation(11,165,3,30).
operation(11,166,6,33).
operation(11,167,0,13).
operation(11,168,4,4).
operation(11,169,2,74).
operation(11,170,1,37).
operation(11,171,5,78).
operation(11,172,14,2).
operation(11,173,13,56).
operation(11,174,9,21).
operation(11,175,10,61).
operation(11,176,11,81).
operation(11,177,7,18).
operation(11,178,8,59).
operation(11,179,12,62).

%--- Job 12
job(12).
operation(12,180,5,40).
operation(12,181,1,75).
operation(12,182,6,45).
operation(12,183,0,41).
operation(12,184,3,97).
operation(12,185,2,65).
operation(12,186,4,92).
operation(12,187,7,11).
operation(12,188,12,44).
operation(12,189,8,40).
operation(12,190,9,100).
operation(12,191,11,91).
operation(12,192,14,66).
operation(12,193,13,53).
operation(12,194,10,27).

%--- Job 13
job(13).
operation(13,195,1,83).
operation(13,196,2,52).
operation(13,197,0,84).
operation(13,198,3,66).
operation(13,199,5,3).
operation(13,200,6,5).
operation(13,201,4,71).
operation(13,202,13,41).
operation(13,203,10,42).
operation(13,204,11,63).
operation(13,205,12,50).
operation(13,206,14,43).
operation(13,207,8,3).
operation(13,208,9,35).
operation(13,209,7,18).

%--- Job 14
job(14).
operation(14,210,4,44).
operation(14,211,0,26).
operation(14,212,1,59).
operation(14,213,6,81).
operation(14,214,2,84).
operation(14,215,5,81).
operation(14,216,3,91).
operation(14,217,13,41).
operation(14,218,7,42).
operation(14,219,11,53).
operation(14,220,8,63).
operation(14,221,14,89).
operation(14,222,9,15).
operation(14,223,10,64).
operation(14,224,12,40).

%--- Job 15
job(15).
operation(15,225,1,46).
operation(15,226,0,97).
operation(15,227,5,67).
operation(15,228,4,97).
operation(15,229,3,71).
operation(15,230,6,88).
operation(15,231,2,69).
operation(15,232,14,44).
operation(15,233,12,20).
operation(15,234,11,52).
operation(15,235,13,34).
operation(15,236,10,74).
operation(15,237,8,79).
operation(15,238,7,10).
operation(15,239,9,87).

%--- Job 16
job(16).
operation(16,240,3,71).
operation(16,241,6,13).
operation(16,242,4,100).
operation(16,243,2,67).
operation(16,244,1,57).
operation(16,245,5,24).
operation(16,246,0,36).
operation(16,247,7,88).
operation(16,248,14,79).
operation(16,249,8,21).
operation(16,250,9,86).
operation(16,251,12,60).
operation(16,252,11,28).
operation(16,253,10,14).
operation(16,254,13,3).

%--- Job 17
job(17).
operation(17,255,0,97).
operation(17,256,6,24).
operation(17,257,2,41).
operation(17,258,4,40).
operation(17,259,1,51).
operation(17,260,5,73).
operation(17,261,3,19).
operation(17,262,9,27).
operation(17,263,12,70).
operation(17,264,13,98).
operation(17,265,10,11).
operation(17,266,11,83).
operation(17,267,7,76).
operation(17,268,8,60).
operation(17,269,14,12).

%--- Job 18
job(18).
operation(18,270,5,88).
operation(18,271,3,48).
operation(18,272,1,33).
operation(18,273,4,96).
operation(18,274,6,10).
operation(18,275,0,49).
operation(18,276,2,52).
operation(18,277,10,38).
operation(18,278,13,49).
operation(18,279,7,31).
operation(18,280,12,94).
operation(18,281,14,23).
operation(18,282,9,7).
operation(18,283,11,5).
operation(18,284,8,4).

%--- Job 19
job(19).
operation(19,285,2,85).
operation(19,286,0,100).
operation(19,287,5,51).
operation(19,288,6,91).
operation(19,289,1,21).
operation(19,290,3,83).
operation(19,291,4,30).
operation(19,292,12,23).
operation(19,293,9,48).
operation(19,294,8,19).
operation(19,295,11,47).
operation(19,296,10,95).
operation(19,297,7,23).
operation(19,298,14,78).
operation(19,299,13,22).

