% ========= Metadata =========
   meta(name,swv14).
   meta(num_jobs,50).
   meta(num_machines,10).
   meta(num_operations,500).
   meta(optimum,2968).
   meta(upper_bound,2968).
   meta(lower_bound,2968).
% ==========================


machine(0..10).

%--- Job 0
job(0).
operation(0,0,4,69).
operation(0,1,0,37).
operation(0,2,3,64).
operation(0,3,1,1).
operation(0,4,2,65).
operation(0,5,9,34).
operation(0,6,5,67).
operation(0,7,8,43).
operation(0,8,7,72).
operation(0,9,6,79).

%--- Job 1
job(1).
operation(1,10,1,11).
operation(1,11,0,7).
operation(1,12,3,68).
operation(1,13,4,43).
operation(1,14,2,52).
operation(1,15,6,29).
operation(1,16,9,71).
operation(1,17,7,81).
operation(1,18,8,12).
operation(1,19,5,36).

%--- Job 2
job(2).
operation(2,20,4,90).
operation(2,21,3,29).
operation(2,22,1,1).
operation(2,23,2,1).
operation(2,24,0,14).
operation(2,25,8,38).
operation(2,26,5,13).
operation(2,27,9,21).
operation(2,28,7,41).
operation(2,29,6,97).

%--- Job 3
job(3).
operation(3,30,1,46).
operation(3,31,0,26).
operation(3,32,4,83).
operation(3,33,2,36).
operation(3,34,3,20).
operation(3,35,9,4).
operation(3,36,8,23).
operation(3,37,7,65).
operation(3,38,5,56).
operation(3,39,6,42).

%--- Job 4
job(4).
operation(4,40,4,46).
operation(4,41,0,39).
operation(4,42,2,92).
operation(4,43,3,53).
operation(4,44,1,62).
operation(4,45,9,68).
operation(4,46,7,65).
operation(4,47,8,74).
operation(4,48,6,87).
operation(4,49,5,46).

%--- Job 5
job(5).
operation(5,50,4,13).
operation(5,51,1,44).
operation(5,52,3,43).
operation(5,53,2,67).
operation(5,54,0,75).
operation(5,55,6,5).
operation(5,56,9,94).
operation(5,57,5,95).
operation(5,58,7,28).
operation(5,59,8,85).

%--- Job 6
job(6).
operation(6,60,1,1).
operation(6,61,2,99).
operation(6,62,4,36).
operation(6,63,3,86).
operation(6,64,0,65).
operation(6,65,8,32).
operation(6,66,5,17).
operation(6,67,7,71).
operation(6,68,6,15).
operation(6,69,9,61).

%--- Job 7
job(7).
operation(7,70,2,18).
operation(7,71,4,63).
operation(7,72,3,15).
operation(7,73,0,59).
operation(7,74,1,33).
operation(7,75,7,95).
operation(7,76,5,63).
operation(7,77,6,85).
operation(7,78,8,34).
operation(7,79,9,3).

%--- Job 8
job(8).
operation(8,80,4,13).
operation(8,81,2,25).
operation(8,82,0,82).
operation(8,83,3,23).
operation(8,84,1,26).
operation(8,85,7,22).
operation(8,86,9,35).
operation(8,87,8,16).
operation(8,88,6,24).
operation(8,89,5,41).

%--- Job 9
job(9).
operation(9,90,3,1).
operation(9,91,1,7).
operation(9,92,0,21).
operation(9,93,2,73).
operation(9,94,4,39).
operation(9,95,6,32).
operation(9,96,7,77).
operation(9,97,5,29).
operation(9,98,8,89).
operation(9,99,9,21).

%--- Job 10
job(10).
operation(10,100,1,53).
operation(10,101,3,27).
operation(10,102,4,55).
operation(10,103,0,16).
operation(10,104,2,64).
operation(10,105,5,78).
operation(10,106,9,32).
operation(10,107,8,60).
operation(10,108,7,20).
operation(10,109,6,20).

%--- Job 11
job(11).
operation(11,110,1,71).
operation(11,111,2,54).
operation(11,112,3,21).
operation(11,113,0,20).
operation(11,114,4,23).
operation(11,115,9,40).
operation(11,116,5,99).
operation(11,117,7,61).
operation(11,118,6,94).
operation(11,119,8,71).

%--- Job 12
job(12).
operation(12,120,2,76).
operation(12,121,4,72).
operation(12,122,3,91).
operation(12,123,0,75).
operation(12,124,1,7).
operation(12,125,6,53).
operation(12,126,8,32).
operation(12,127,7,71).
operation(12,128,5,63).
operation(12,129,9,53).

%--- Job 13
job(13).
operation(13,130,2,12).
operation(13,131,1,3).
operation(13,132,4,35).
operation(13,133,0,64).
operation(13,134,3,30).
operation(13,135,5,94).
operation(13,136,8,67).
operation(13,137,7,31).
operation(13,138,6,79).
operation(13,139,9,14).

%--- Job 14
job(14).
operation(14,140,4,63).
operation(14,141,1,28).
operation(14,142,3,87).
operation(14,143,0,89).
operation(14,144,2,52).
operation(14,145,8,2).
operation(14,146,9,21).
operation(14,147,7,92).
operation(14,148,6,44).
operation(14,149,5,37).

%--- Job 15
job(15).
operation(15,150,0,79).
operation(15,151,1,65).
operation(15,152,4,35).
operation(15,153,3,78).
operation(15,154,2,17).
operation(15,155,8,90).
operation(15,156,5,54).
operation(15,157,9,91).
operation(15,158,7,57).
operation(15,159,6,23).

%--- Job 16
job(16).
operation(16,160,3,20).
operation(16,161,1,93).
operation(16,162,4,61).
operation(16,163,0,76).
operation(16,164,2,23).
operation(16,165,5,10).
operation(16,166,8,34).
operation(16,167,7,20).
operation(16,168,9,87).
operation(16,169,6,77).

%--- Job 17
job(17).
operation(17,170,0,37).
operation(17,171,2,17).
operation(17,172,1,92).
operation(17,173,4,30).
operation(17,174,3,59).
operation(17,175,5,47).
operation(17,176,8,7).
operation(17,177,7,45).
operation(17,178,6,13).
operation(17,179,9,60).

%--- Job 18
job(18).
operation(18,180,4,90).
operation(18,181,3,74).
operation(18,182,0,46).
operation(18,183,2,36).
operation(18,184,1,2).
operation(18,185,6,9).
operation(18,186,5,83).
operation(18,187,8,90).
operation(18,188,7,88).
operation(18,189,9,39).

%--- Job 19
job(19).
operation(19,190,3,83).
operation(19,191,0,85).
operation(19,192,2,20).
operation(19,193,4,88).
operation(19,194,1,94).
operation(19,195,6,14).
operation(19,196,5,16).
operation(19,197,7,62).
operation(19,198,9,53).
operation(19,199,8,9).

%--- Job 20
job(20).
operation(20,200,0,4).
operation(20,201,4,16).
operation(20,202,2,64).
operation(20,203,1,60).
operation(20,204,3,79).
operation(20,205,5,37).
operation(20,206,6,49).
operation(20,207,7,67).
operation(20,208,9,95).
operation(20,209,8,5).

%--- Job 21
job(21).
operation(21,210,3,32).
operation(21,211,0,86).
operation(21,212,1,5).
operation(21,213,4,66).
operation(21,214,2,77).
operation(21,215,7,15).
operation(21,216,5,68).
operation(21,217,9,40).
operation(21,218,8,1).
operation(21,219,6,4).

%--- Job 22
job(22).
operation(22,220,0,2).
operation(22,221,1,48).
operation(22,222,4,23).
operation(22,223,3,25).
operation(22,224,2,58).
operation(22,225,9,55).
operation(22,226,7,14).
operation(22,227,8,21).
operation(22,228,6,85).
operation(22,229,5,27).

%--- Job 23
job(23).
operation(23,230,1,71).
operation(23,231,4,92).
operation(23,232,3,99).
operation(23,233,2,56).
operation(23,234,0,81).
operation(23,235,7,79).
operation(23,236,6,66).
operation(23,237,9,42).
operation(23,238,8,47).
operation(23,239,5,43).

%--- Job 24
job(24).
operation(24,240,1,77).
operation(24,241,4,85).
operation(24,242,3,72).
operation(24,243,2,19).
operation(24,244,0,71).
operation(24,245,5,34).
operation(24,246,7,9).
operation(24,247,9,14).
operation(24,248,6,62).
operation(24,249,8,58).

%--- Job 25
job(25).
operation(25,250,4,38).
operation(25,251,0,3).
operation(25,252,2,61).
operation(25,253,3,98).
operation(25,254,1,76).
operation(25,255,5,14).
operation(25,256,9,56).
operation(25,257,8,26).
operation(25,258,7,43).
operation(25,259,6,44).

%--- Job 26
job(26).
operation(26,260,1,68).
operation(26,261,4,54).
operation(26,262,0,62).
operation(26,263,2,93).
operation(26,264,3,22).
operation(26,265,6,57).
operation(26,266,7,79).
operation(26,267,9,19).
operation(26,268,5,77).
operation(26,269,8,45).

%--- Job 27
job(27).
operation(27,270,2,62).
operation(27,271,1,96).
operation(27,272,4,56).
operation(27,273,0,68).
operation(27,274,3,24).
operation(27,275,5,41).
operation(27,276,6,19).
operation(27,277,7,2).
operation(27,278,8,73).
operation(27,279,9,50).

%--- Job 28
job(28).
operation(28,280,2,86).
operation(28,281,0,53).
operation(28,282,3,3).
operation(28,283,1,89).
operation(28,284,4,37).
operation(28,285,7,100).
operation(28,286,5,59).
operation(28,287,9,23).
operation(28,288,6,19).
operation(28,289,8,35).

%--- Job 29
job(29).
operation(29,290,3,90).
operation(29,291,4,94).
operation(29,292,0,21).
operation(29,293,2,78).
operation(29,294,1,85).
operation(29,295,5,94).
operation(29,296,6,90).
operation(29,297,8,28).
operation(29,298,9,92).
operation(29,299,7,56).

%--- Job 30
job(30).
operation(30,300,4,85).
operation(30,301,2,97).
operation(30,302,0,8).
operation(30,303,3,27).
operation(30,304,1,86).
operation(30,305,9,26).
operation(30,306,7,5).
operation(30,307,8,96).
operation(30,308,5,68).
operation(30,309,6,57).

%--- Job 31
job(31).
operation(31,310,0,58).
operation(31,311,3,4).
operation(31,312,4,49).
operation(31,313,2,1).
operation(31,314,1,79).
operation(31,315,8,10).
operation(31,316,6,44).
operation(31,317,9,87).
operation(31,318,5,16).
operation(31,319,7,13).

%--- Job 32
job(32).
operation(32,320,3,85).
operation(32,321,0,24).
operation(32,322,4,23).
operation(32,323,1,41).
operation(32,324,2,59).
operation(32,325,8,20).
operation(32,326,6,52).
operation(32,327,5,58).
operation(32,328,9,75).
operation(32,329,7,77).

%--- Job 33
job(33).
operation(33,330,0,47).
operation(33,331,1,89).
operation(33,332,2,68).
operation(33,333,4,88).
operation(33,334,3,17).
operation(33,335,6,48).
operation(33,336,8,84).
operation(33,337,9,100).
operation(33,338,5,92).
operation(33,339,7,47).

%--- Job 34
job(34).
operation(34,340,1,30).
operation(34,341,0,1).
operation(34,342,3,61).
operation(34,343,4,20).
operation(34,344,2,73).
operation(34,345,8,78).
operation(34,346,7,41).
operation(34,347,9,52).
operation(34,348,5,43).
operation(34,349,6,74).

%--- Job 35
job(35).
operation(35,350,0,11).
operation(35,351,4,58).
operation(35,352,3,66).
operation(35,353,2,67).
operation(35,354,1,18).
operation(35,355,8,42).
operation(35,356,7,88).
operation(35,357,9,49).
operation(35,358,5,62).
operation(35,359,6,71).

%--- Job 36
job(36).
operation(36,360,4,5).
operation(36,361,2,51).
operation(36,362,3,67).
operation(36,363,1,20).
operation(36,364,0,11).
operation(36,365,7,37).
operation(36,366,6,42).
operation(36,367,8,25).
operation(36,368,9,57).
operation(36,369,5,1).

%--- Job 37
job(37).
operation(37,370,0,58).
operation(37,371,4,83).
operation(37,372,2,9).
operation(37,373,3,68).
operation(37,374,1,21).
operation(37,375,6,28).
operation(37,376,9,77).
operation(37,377,5,19).
operation(37,378,7,32).
operation(37,379,8,66).

%--- Job 38
job(38).
operation(38,380,3,85).
operation(38,381,2,58).
operation(38,382,0,65).
operation(38,383,1,80).
operation(38,384,4,50).
operation(38,385,7,79).
operation(38,386,5,43).
operation(38,387,8,29).
operation(38,388,9,9).
operation(38,389,6,18).

%--- Job 39
job(39).
operation(39,390,3,74).
operation(39,391,2,29).
operation(39,392,0,11).
operation(39,393,1,23).
operation(39,394,4,34).
operation(39,395,7,84).
operation(39,396,8,57).
operation(39,397,5,77).
operation(39,398,6,83).
operation(39,399,9,82).

%--- Job 40
job(40).
operation(40,400,2,6).
operation(40,401,4,67).
operation(40,402,0,97).
operation(40,403,3,66).
operation(40,404,1,21).
operation(40,405,8,90).
operation(40,406,9,46).
operation(40,407,6,12).
operation(40,408,5,17).
operation(40,409,7,96).

%--- Job 41
job(41).
operation(41,410,4,34).
operation(41,411,1,5).
operation(41,412,2,13).
operation(41,413,0,100).
operation(41,414,3,12).
operation(41,415,8,63).
operation(41,416,7,59).
operation(41,417,5,75).
operation(41,418,6,91).
operation(41,419,9,89).

%--- Job 42
job(42).
operation(42,420,1,30).
operation(42,421,2,66).
operation(42,422,0,33).
operation(42,423,3,70).
operation(42,424,4,16).
operation(42,425,6,80).
operation(42,426,5,58).
operation(42,427,8,8).
operation(42,428,7,86).
operation(42,429,9,66).

%--- Job 43
job(43).
operation(43,430,3,55).
operation(43,431,0,46).
operation(43,432,2,1).
operation(43,433,1,77).
operation(43,434,4,19).
operation(43,435,7,85).
operation(43,436,9,32).
operation(43,437,6,59).
operation(43,438,5,37).
operation(43,439,8,69).

%--- Job 44
job(44).
operation(44,440,2,3).
operation(44,441,0,16).
operation(44,442,1,48).
operation(44,443,4,8).
operation(44,444,3,51).
operation(44,445,7,72).
operation(44,446,6,19).
operation(44,447,8,58).
operation(44,448,9,59).
operation(44,449,5,94).

%--- Job 45
job(45).
operation(45,450,3,30).
operation(45,451,4,23).
operation(45,452,1,92).
operation(45,453,0,18).
operation(45,454,2,19).
operation(45,455,9,32).
operation(45,456,6,57).
operation(45,457,5,50).
operation(45,458,7,64).
operation(45,459,8,27).

%--- Job 46
job(46).
operation(46,460,2,18).
operation(46,461,0,72).
operation(46,462,4,92).
operation(46,463,1,6).
operation(46,464,3,67).
operation(46,465,8,100).
operation(46,466,6,32).
operation(46,467,9,14).
operation(46,468,5,51).
operation(46,469,7,55).

%--- Job 47
job(47).
operation(47,470,4,48).
operation(47,471,0,87).
operation(47,472,1,96).
operation(47,473,2,58).
operation(47,474,3,83).
operation(47,475,8,77).
operation(47,476,5,26).
operation(47,477,7,77).
operation(47,478,9,72).
operation(47,479,6,86).

%--- Job 48
job(48).
operation(48,480,1,80).
operation(48,481,4,5).
operation(48,482,0,50).
operation(48,483,3,65).
operation(48,484,2,85).
operation(48,485,7,88).
operation(48,486,5,47).
operation(48,487,6,33).
operation(48,488,8,50).
operation(48,489,9,75).

%--- Job 49
job(49).
operation(49,490,1,78).
operation(49,491,0,96).
operation(49,492,4,80).
operation(49,493,3,5).
operation(49,494,2,99).
operation(49,495,9,58).
operation(49,496,5,38).
operation(49,497,7,29).
operation(49,498,8,69).
operation(49,499,6,44).

