% ========= Metadata =========
   meta(name,swv20).
   meta(num_jobs,50).
   meta(num_machines,10).
   meta(num_operations,500).
   meta(optimum,2823).
   meta(upper_bound,2823).
   meta(lower_bound,2823).
% ==========================


machine(0..10).

%--- Job 0
job(0).
operation(0,0,8,100).
operation(0,1,7,30).
operation(0,2,4,42).
operation(0,3,9,11).
operation(0,4,2,31).
operation(0,5,1,71).
operation(0,6,5,41).
operation(0,7,0,1).
operation(0,8,3,55).
operation(0,9,6,94).

%--- Job 1
job(1).
operation(1,10,4,81).
operation(1,11,6,20).
operation(1,12,3,96).
operation(1,13,7,39).
operation(1,14,8,29).
operation(1,15,0,90).
operation(1,16,9,61).
operation(1,17,2,64).
operation(1,18,1,86).
operation(1,19,5,47).

%--- Job 2
job(2).
operation(2,20,5,80).
operation(2,21,0,56).
operation(2,22,1,88).
operation(2,23,7,19).
operation(2,24,2,68).
operation(2,25,8,95).
operation(2,26,3,44).
operation(2,27,4,22).
operation(2,28,9,60).
operation(2,29,6,80).

%--- Job 3
job(3).
operation(3,30,4,86).
operation(3,31,6,70).
operation(3,32,0,88).
operation(3,33,2,15).
operation(3,34,7,50).
operation(3,35,1,54).
operation(3,36,9,88).
operation(3,37,3,25).
operation(3,38,8,89).
operation(3,39,5,33).

%--- Job 4
job(4).
operation(4,40,0,48).
operation(4,41,1,57).
operation(4,42,4,86).
operation(4,43,8,60).
operation(4,44,3,78).
operation(4,45,5,4).
operation(4,46,9,60).
operation(4,47,7,40).
operation(4,48,2,11).
operation(4,49,6,25).

%--- Job 5
job(5).
operation(5,50,6,23).
operation(5,51,7,9).
operation(5,52,1,90).
operation(5,53,0,51).
operation(5,54,2,52).
operation(5,55,9,14).
operation(5,56,5,30).
operation(5,57,4,1).
operation(5,58,8,25).
operation(5,59,3,83).

%--- Job 6
job(6).
operation(6,60,1,30).
operation(6,61,4,75).
operation(6,62,5,76).
operation(6,63,9,100).
operation(6,64,7,54).
operation(6,65,2,41).
operation(6,66,6,50).
operation(6,67,8,75).
operation(6,68,0,1).
operation(6,69,3,28).

%--- Job 7
job(7).
operation(7,70,2,46).
operation(7,71,3,78).
operation(7,72,1,37).
operation(7,73,7,12).
operation(7,74,6,56).
operation(7,75,4,50).
operation(7,76,8,66).
operation(7,77,5,39).
operation(7,78,0,8).
operation(7,79,9,72).

%--- Job 8
job(8).
operation(8,80,1,24).
operation(8,81,6,90).
operation(8,82,0,32).
operation(8,83,3,6).
operation(8,84,2,99).
operation(8,85,9,22).
operation(8,86,8,12).
operation(8,87,4,63).
operation(8,88,7,81).
operation(8,89,5,52).

%--- Job 9
job(9).
operation(9,90,6,62).
operation(9,91,3,9).
operation(9,92,8,59).
operation(9,93,0,66).
operation(9,94,4,41).
operation(9,95,1,32).
operation(9,96,5,29).
operation(9,97,7,79).
operation(9,98,9,84).
operation(9,99,2,4).

%--- Job 10
job(10).
operation(10,100,9,57).
operation(10,101,5,99).
operation(10,102,6,2).
operation(10,103,3,17).
operation(10,104,0,51).
operation(10,105,7,10).
operation(10,106,4,14).
operation(10,107,1,64).
operation(10,108,2,99).
operation(10,109,8,27).

%--- Job 11
job(11).
operation(11,110,7,81).
operation(11,111,0,67).
operation(11,112,9,83).
operation(11,113,2,30).
operation(11,114,5,25).
operation(11,115,6,87).
operation(11,116,1,29).
operation(11,117,3,7).
operation(11,118,8,93).
operation(11,119,4,1).

%--- Job 12
job(12).
operation(12,120,5,65).
operation(12,121,8,53).
operation(12,122,9,48).
operation(12,123,4,28).
operation(12,124,7,74).
operation(12,125,0,60).
operation(12,126,6,77).
operation(12,127,2,22).
operation(12,128,1,5).
operation(12,129,3,98).

%--- Job 13
job(13).
operation(13,130,1,97).
operation(13,131,5,37).
operation(13,132,0,71).
operation(13,133,7,49).
operation(13,134,6,51).
operation(13,135,3,17).
operation(13,136,4,38).
operation(13,137,9,67).
operation(13,138,8,28).
operation(13,139,2,31).

%--- Job 14
job(14).
operation(14,140,0,20).
operation(14,141,8,94).
operation(14,142,3,39).
operation(14,143,6,73).
operation(14,144,9,63).
operation(14,145,4,8).
operation(14,146,2,57).
operation(14,147,1,27).
operation(14,148,7,26).
operation(14,149,5,42).

%--- Job 15
job(15).
operation(15,150,8,77).
operation(15,151,1,68).
operation(15,152,9,20).
operation(15,153,7,100).
operation(15,154,4,1).
operation(15,155,5,77).
operation(15,156,6,17).
operation(15,157,3,35).
operation(15,158,2,65).
operation(15,159,0,86).

%--- Job 16
job(16).
operation(16,160,8,68).
operation(16,161,6,62).
operation(16,162,4,79).
operation(16,163,7,84).
operation(16,164,1,60).
operation(16,165,3,56).
operation(16,166,0,10).
operation(16,167,9,86).
operation(16,168,5,60).
operation(16,169,2,30).

%--- Job 17
job(17).
operation(17,170,4,71).
operation(17,171,2,74).
operation(17,172,6,6).
operation(17,173,1,56).
operation(17,174,3,69).
operation(17,175,0,8).
operation(17,176,8,50).
operation(17,177,9,78).
operation(17,178,5,4).
operation(17,179,7,89).

%--- Job 18
job(18).
operation(18,180,8,29).
operation(18,181,5,5).
operation(18,182,1,59).
operation(18,183,3,96).
operation(18,184,0,46).
operation(18,185,4,91).
operation(18,186,2,48).
operation(18,187,7,53).
operation(18,188,6,21).
operation(18,189,9,82).

%--- Job 19
job(19).
operation(19,190,2,19).
operation(19,191,9,96).
operation(19,192,0,73).
operation(19,193,1,39).
operation(19,194,5,54).
operation(19,195,8,50).
operation(19,196,7,60).
operation(19,197,3,50).
operation(19,198,4,65).
operation(19,199,6,78).

%--- Job 20
job(20).
operation(20,200,7,68).
operation(20,201,4,15).
operation(20,202,2,26).
operation(20,203,3,26).
operation(20,204,0,13).
operation(20,205,9,13).
operation(20,206,5,96).
operation(20,207,8,70).
operation(20,208,6,27).
operation(20,209,1,93).

%--- Job 21
job(21).
operation(21,210,6,41).
operation(21,211,8,18).
operation(21,212,4,66).
operation(21,213,7,9).
operation(21,214,1,31).
operation(21,215,2,92).
operation(21,216,0,3).
operation(21,217,3,78).
operation(21,218,5,41).
operation(21,219,9,53).

%--- Job 22
job(22).
operation(22,220,5,9).
operation(22,221,0,64).
operation(22,222,2,15).
operation(22,223,6,73).
operation(22,224,4,12).
operation(22,225,1,43).
operation(22,226,8,89).
operation(22,227,7,69).
operation(22,228,3,32).
operation(22,229,9,22).

%--- Job 23
job(23).
operation(23,230,5,93).
operation(23,231,6,19).
operation(23,232,3,74).
operation(23,233,8,81).
operation(23,234,0,72).
operation(23,235,2,94).
operation(23,236,9,19).
operation(23,237,1,26).
operation(23,238,4,53).
operation(23,239,7,7).

%--- Job 24
job(24).
operation(24,240,3,48).
operation(24,241,2,29).
operation(24,242,5,51).
operation(24,243,8,72).
operation(24,244,7,35).
operation(24,245,6,32).
operation(24,246,1,38).
operation(24,247,0,98).
operation(24,248,4,58).
operation(24,249,9,54).

%--- Job 25
job(25).
operation(25,250,0,94).
operation(25,251,9,23).
operation(25,252,4,41).
operation(25,253,6,53).
operation(25,254,2,53).
operation(25,255,7,27).
operation(25,256,1,62).
operation(25,257,3,68).
operation(25,258,8,84).
operation(25,259,5,49).

%--- Job 26
job(26).
operation(26,260,4,4).
operation(26,261,1,4).
operation(26,262,0,66).
operation(26,263,7,90).
operation(26,264,9,78).
operation(26,265,2,29).
operation(26,266,5,2).
operation(26,267,6,86).
operation(26,268,3,23).
operation(26,269,8,46).

%--- Job 27
job(27).
operation(27,270,3,78).
operation(27,271,5,61).
operation(27,272,2,97).
operation(27,273,7,68).
operation(27,274,8,92).
operation(27,275,0,15).
operation(27,276,4,12).
operation(27,277,6,77).
operation(27,278,1,12).
operation(27,279,9,22).

%--- Job 28
job(28).
operation(28,280,0,100).
operation(28,281,7,89).
operation(28,282,6,71).
operation(28,283,2,70).
operation(28,284,8,89).
operation(28,285,4,72).
operation(28,286,5,78).
operation(28,287,3,23).
operation(28,288,9,37).
operation(28,289,1,2).

%--- Job 29
job(29).
operation(29,290,0,91).
operation(29,291,3,74).
operation(29,292,2,36).
operation(29,293,4,72).
operation(29,294,6,62).
operation(29,295,1,80).
operation(29,296,9,20).
operation(29,297,7,77).
operation(29,298,5,47).
operation(29,299,8,80).

%--- Job 30
job(30).
operation(30,300,1,44).
operation(30,301,0,67).
operation(30,302,4,66).
operation(30,303,8,99).
operation(30,304,6,59).
operation(30,305,5,5).
operation(30,306,7,15).
operation(30,307,2,38).
operation(30,308,3,40).
operation(30,309,9,19).

%--- Job 31
job(31).
operation(31,310,1,69).
operation(31,311,9,35).
operation(31,312,3,86).
operation(31,313,0,7).
operation(31,314,2,35).
operation(31,315,5,32).
operation(31,316,6,66).
operation(31,317,4,89).
operation(31,318,8,63).
operation(31,319,7,52).

%--- Job 32
job(32).
operation(32,320,3,3).
operation(32,321,4,68).
operation(32,322,1,66).
operation(32,323,7,27).
operation(32,324,6,41).
operation(32,325,5,2).
operation(32,326,9,77).
operation(32,327,0,45).
operation(32,328,2,40).
operation(32,329,8,39).

%--- Job 33
job(33).
operation(33,330,4,66).
operation(33,331,3,42).
operation(33,332,7,79).
operation(33,333,0,55).
operation(33,334,6,98).
operation(33,335,9,44).
operation(33,336,5,6).
operation(33,337,8,73).
operation(33,338,1,55).
operation(33,339,2,1).

%--- Job 34
job(34).
operation(34,340,3,80).
operation(34,341,8,18).
operation(34,342,9,94).
operation(34,343,2,27).
operation(34,344,5,42).
operation(34,345,4,17).
operation(34,346,7,74).
operation(34,347,0,65).
operation(34,348,6,6).
operation(34,349,1,27).

%--- Job 35
job(35).
operation(35,350,2,73).
operation(35,351,4,70).
operation(35,352,5,51).
operation(35,353,0,84).
operation(35,354,8,29).
operation(35,355,9,95).
operation(35,356,1,97).
operation(35,357,7,28).
operation(35,358,3,68).
operation(35,359,6,89).

%--- Job 36
job(36).
operation(36,360,9,85).
operation(36,361,6,56).
operation(36,362,5,54).
operation(36,363,3,76).
operation(36,364,2,50).
operation(36,365,0,43).
operation(36,366,1,8).
operation(36,367,7,93).
operation(36,368,4,17).
operation(36,369,8,65).

%--- Job 37
job(37).
operation(37,370,1,1).
operation(37,371,3,17).
operation(37,372,2,61).
operation(37,373,5,38).
operation(37,374,4,71).
operation(37,375,7,18).
operation(37,376,0,40).
operation(37,377,9,94).
operation(37,378,6,41).
operation(37,379,8,74).

%--- Job 38
job(38).
operation(38,380,3,30).
operation(38,381,8,22).
operation(38,382,6,39).
operation(38,383,9,56).
operation(38,384,5,3).
operation(38,385,7,64).
operation(38,386,4,74).
operation(38,387,2,21).
operation(38,388,0,93).
operation(38,389,1,1).

%--- Job 39
job(39).
operation(39,390,0,17).
operation(39,391,8,8).
operation(39,392,9,20).
operation(39,393,5,38).
operation(39,394,3,85).
operation(39,395,7,5).
operation(39,396,2,63).
operation(39,397,1,18).
operation(39,398,4,89).
operation(39,399,6,88).

%--- Job 40
job(40).
operation(40,400,8,87).
operation(40,401,5,44).
operation(40,402,0,42).
operation(40,403,1,34).
operation(40,404,9,11).
operation(40,405,7,13).
operation(40,406,3,71).
operation(40,407,4,88).
operation(40,408,6,32).
operation(40,409,2,12).

%--- Job 41
job(41).
operation(41,410,2,39).
operation(41,411,1,73).
operation(41,412,6,43).
operation(41,413,0,48).
operation(41,414,9,77).
operation(41,415,8,48).
operation(41,416,5,23).
operation(41,417,7,66).
operation(41,418,3,94).
operation(41,419,4,68).

%--- Job 42
job(42).
operation(42,420,1,98).
operation(42,421,7,19).
operation(42,422,3,69).
operation(42,423,6,5).
operation(42,424,8,85).
operation(42,425,9,19).
operation(42,426,0,30).
operation(42,427,2,43).
operation(42,428,5,87).
operation(42,429,4,70).

%--- Job 43
job(43).
operation(43,430,2,45).
operation(43,431,1,60).
operation(43,432,4,30).
operation(43,433,9,71).
operation(43,434,5,35).
operation(43,435,0,75).
operation(43,436,3,75).
operation(43,437,6,41).
operation(43,438,8,67).
operation(43,439,7,37).

%--- Job 44
job(44).
operation(44,440,3,63).
operation(44,441,7,39).
operation(44,442,2,16).
operation(44,443,9,69).
operation(44,444,1,46).
operation(44,445,5,20).
operation(44,446,6,57).
operation(44,447,4,51).
operation(44,448,0,66).
operation(44,449,8,40).

%--- Job 45
job(45).
operation(45,450,2,7).
operation(45,451,7,73).
operation(45,452,6,17).
operation(45,453,1,21).
operation(45,454,0,24).
operation(45,455,8,2).
operation(45,456,5,68).
operation(45,457,4,22).
operation(45,458,9,36).
operation(45,459,3,60).

%--- Job 46
job(46).
operation(46,460,1,20).
operation(46,461,4,17).
operation(46,462,8,12).
operation(46,463,9,29).
operation(46,464,5,28).
operation(46,465,0,7).
operation(46,466,3,38).
operation(46,467,6,57).
operation(46,468,7,22).
operation(46,469,2,75).

%--- Job 47
job(47).
operation(47,470,5,53).
operation(47,471,4,7).
operation(47,472,7,5).
operation(47,473,8,27).
operation(47,474,9,38).
operation(47,475,2,100).
operation(47,476,6,48).
operation(47,477,0,53).
operation(47,478,1,11).
operation(47,479,3,18).

%--- Job 48
job(48).
operation(48,480,1,49).
operation(48,481,7,47).
operation(48,482,4,81).
operation(48,483,8,9).
operation(48,484,0,20).
operation(48,485,2,63).
operation(48,486,3,15).
operation(48,487,6,1).
operation(48,488,9,10).
operation(48,489,5,5).

%--- Job 49
job(49).
operation(49,490,4,49).
operation(49,491,6,27).
operation(49,492,7,17).
operation(49,493,5,64).
operation(49,494,2,30).
operation(49,495,8,56).
operation(49,496,0,42).
operation(49,497,3,97).
operation(49,498,9,82).
operation(49,499,1,34).

