% ========= Metadata =========
   meta(name,yn1).
   meta(num_jobs,20).
   meta(num_machines,20).
   meta(num_operations,400).
   meta(optimum,884).
   meta(upper_bound,884).
   meta(lower_bound,884).
% ==========================


machine(0..20).

%--- Job 0
job(0).
operation(0,0,17,13).
operation(0,1,2,26).
operation(0,2,11,35).
operation(0,3,4,45).
operation(0,4,12,29).
operation(0,5,13,21).
operation(0,6,7,40).
operation(0,7,0,45).
operation(0,8,3,16).
operation(0,9,15,10).
operation(0,10,18,49).
operation(0,11,10,43).
operation(0,12,14,25).
operation(0,13,8,25).
operation(0,14,1,40).
operation(0,15,6,16).
operation(0,16,19,43).
operation(0,17,5,48).
operation(0,18,9,36).
operation(0,19,16,11).

%--- Job 1
job(1).
operation(1,20,8,21).
operation(1,21,6,22).
operation(1,22,14,15).
operation(1,23,5,28).
operation(1,24,10,10).
operation(1,25,2,46).
operation(1,26,11,19).
operation(1,27,19,13).
operation(1,28,13,18).
operation(1,29,18,14).
operation(1,30,3,11).
operation(1,31,4,21).
operation(1,32,16,30).
operation(1,33,1,29).
operation(1,34,0,16).
operation(1,35,15,41).
operation(1,36,17,40).
operation(1,37,12,38).
operation(1,38,7,28).
operation(1,39,9,39).

%--- Job 2
job(2).
operation(2,40,4,39).
operation(2,41,3,28).
operation(2,42,8,32).
operation(2,43,17,46).
operation(2,44,0,35).
operation(2,45,14,14).
operation(2,46,1,44).
operation(2,47,10,20).
operation(2,48,13,12).
operation(2,49,6,23).
operation(2,50,18,22).
operation(2,51,9,15).
operation(2,52,11,35).
operation(2,53,7,27).
operation(2,54,16,26).
operation(2,55,5,27).
operation(2,56,15,23).
operation(2,57,2,27).
operation(2,58,12,31).
operation(2,59,19,31).

%--- Job 3
job(3).
operation(3,60,4,31).
operation(3,61,10,24).
operation(3,62,3,34).
operation(3,63,6,44).
operation(3,64,18,43).
operation(3,65,12,32).
operation(3,66,2,35).
operation(3,67,15,34).
operation(3,68,19,21).
operation(3,69,7,46).
operation(3,70,13,15).
operation(3,71,5,10).
operation(3,72,9,24).
operation(3,73,14,37).
operation(3,74,17,38).
operation(3,75,1,41).
operation(3,76,8,34).
operation(3,77,0,32).
operation(3,78,16,11).
operation(3,79,11,36).

%--- Job 4
job(4).
operation(4,80,19,45).
operation(4,81,1,23).
operation(4,82,5,34).
operation(4,83,9,23).
operation(4,84,7,41).
operation(4,85,16,10).
operation(4,86,11,40).
operation(4,87,12,46).
operation(4,88,14,27).
operation(4,89,8,13).
operation(4,90,4,20).
operation(4,91,2,40).
operation(4,92,15,28).
operation(4,93,13,44).
operation(4,94,17,34).
operation(4,95,18,21).
operation(4,96,10,27).
operation(4,97,0,12).
operation(4,98,6,37).
operation(4,99,3,30).

%--- Job 5
job(5).
operation(5,100,13,48).
operation(5,101,2,34).
operation(5,102,3,22).
operation(5,103,7,14).
operation(5,104,12,22).
operation(5,105,14,10).
operation(5,106,8,45).
operation(5,107,19,38).
operation(5,108,6,32).
operation(5,109,16,38).
operation(5,110,11,16).
operation(5,111,4,20).
operation(5,112,0,12).
operation(5,113,5,40).
operation(5,114,9,33).
operation(5,115,17,35).
operation(5,116,1,32).
operation(5,117,10,15).
operation(5,118,15,31).
operation(5,119,18,49).

%--- Job 6
job(6).
operation(6,120,9,19).
operation(6,121,5,33).
operation(6,122,18,32).
operation(6,123,16,37).
operation(6,124,12,28).
operation(6,125,3,16).
operation(6,126,2,40).
operation(6,127,10,37).
operation(6,128,4,10).
operation(6,129,11,20).
operation(6,130,1,17).
operation(6,131,17,48).
operation(6,132,6,44).
operation(6,133,13,29).
operation(6,134,14,44).
operation(6,135,15,48).
operation(6,136,8,21).
operation(6,137,0,31).
operation(6,138,7,36).
operation(6,139,19,43).

%--- Job 7
job(7).
operation(7,140,9,20).
operation(7,141,6,43).
operation(7,142,1,13).
operation(7,143,5,22).
operation(7,144,2,33).
operation(7,145,7,28).
operation(7,146,16,39).
operation(7,147,12,16).
operation(7,148,13,34).
operation(7,149,17,20).
operation(7,150,10,47).
operation(7,151,18,43).
operation(7,152,19,44).
operation(7,153,8,29).
operation(7,154,15,22).
operation(7,155,4,14).
operation(7,156,11,28).
operation(7,157,14,44).
operation(7,158,0,33).
operation(7,159,3,28).

%--- Job 8
job(8).
operation(8,160,7,14).
operation(8,161,12,40).
operation(8,162,8,19).
operation(8,163,0,49).
operation(8,164,13,11).
operation(8,165,10,13).
operation(8,166,9,47).
operation(8,167,18,22).
operation(8,168,2,27).
operation(8,169,17,26).
operation(8,170,3,47).
operation(8,171,5,37).
operation(8,172,6,19).
operation(8,173,15,43).
operation(8,174,14,41).
operation(8,175,1,34).
operation(8,176,11,21).
operation(8,177,4,30).
operation(8,178,19,32).
operation(8,179,16,45).

%--- Job 9
job(9).
operation(9,180,16,32).
operation(9,181,7,22).
operation(9,182,15,30).
operation(9,183,6,18).
operation(9,184,18,41).
operation(9,185,19,34).
operation(9,186,9,22).
operation(9,187,11,11).
operation(9,188,17,29).
operation(9,189,10,37).
operation(9,190,4,30).
operation(9,191,2,25).
operation(9,192,1,27).
operation(9,193,0,31).
operation(9,194,14,16).
operation(9,195,13,20).
operation(9,196,3,26).
operation(9,197,12,14).
operation(9,198,5,24).
operation(9,199,8,43).

%--- Job 10
job(10).
operation(10,200,18,22).
operation(10,201,17,22).
operation(10,202,12,30).
operation(10,203,15,31).
operation(10,204,13,15).
operation(10,205,4,13).
operation(10,206,16,47).
operation(10,207,19,18).
operation(10,208,6,33).
operation(10,209,3,30).
operation(10,210,7,46).
operation(10,211,2,48).
operation(10,212,11,42).
operation(10,213,0,18).
operation(10,214,1,16).
operation(10,215,8,25).
operation(10,216,10,43).
operation(10,217,5,21).
operation(10,218,9,27).
operation(10,219,14,14).

%--- Job 11
job(11).
operation(11,220,5,48).
operation(11,221,1,39).
operation(11,222,2,21).
operation(11,223,18,18).
operation(11,224,13,20).
operation(11,225,0,28).
operation(11,226,15,20).
operation(11,227,8,36).
operation(11,228,6,24).
operation(11,229,9,35).
operation(11,230,7,22).
operation(11,231,19,36).
operation(11,232,3,39).
operation(11,233,14,34).
operation(11,234,4,49).
operation(11,235,17,36).
operation(11,236,11,38).
operation(11,237,10,46).
operation(11,238,12,44).
operation(11,239,16,13).

%--- Job 12
job(12).
operation(12,240,14,26).
operation(12,241,1,32).
operation(12,242,2,11).
operation(12,243,15,10).
operation(12,244,9,41).
operation(12,245,13,10).
operation(12,246,6,26).
operation(12,247,19,26).
operation(12,248,12,13).
operation(12,249,11,35).
operation(12,250,5,22).
operation(12,251,0,11).
operation(12,252,7,24).
operation(12,253,17,33).
operation(12,254,8,11).
operation(12,255,10,34).
operation(12,256,16,11).
operation(12,257,3,22).
operation(12,258,4,12).
operation(12,259,18,17).

%--- Job 13
job(13).
operation(13,260,16,39).
operation(13,261,10,24).
operation(13,262,17,43).
operation(13,263,14,28).
operation(13,264,3,49).
operation(13,265,15,34).
operation(13,266,18,46).
operation(13,267,13,29).
operation(13,268,6,31).
operation(13,269,11,40).
operation(13,270,7,24).
operation(13,271,1,47).
operation(13,272,9,15).
operation(13,273,2,26).
operation(13,274,8,40).
operation(13,275,12,46).
operation(13,276,5,18).
operation(13,277,19,16).
operation(13,278,4,14).
operation(13,279,0,21).

%--- Job 14
job(14).
operation(14,280,11,41).
operation(14,281,19,26).
operation(14,282,16,14).
operation(14,283,3,47).
operation(14,284,0,49).
operation(14,285,5,16).
operation(14,286,17,31).
operation(14,287,9,43).
operation(14,288,15,20).
operation(14,289,10,25).
operation(14,290,14,10).
operation(14,291,13,49).
operation(14,292,8,32).
operation(14,293,6,36).
operation(14,294,7,19).
operation(14,295,4,23).
operation(14,296,2,20).
operation(14,297,18,15).
operation(14,298,12,34).
operation(14,299,1,33).

%--- Job 15
job(15).
operation(15,300,11,37).
operation(15,301,5,48).
operation(15,302,10,31).
operation(15,303,7,42).
operation(15,304,2,24).
operation(15,305,1,13).
operation(15,306,9,30).
operation(15,307,15,24).
operation(15,308,0,19).
operation(15,309,13,34).
operation(15,310,19,35).
operation(15,311,8,42).
operation(15,312,3,10).
operation(15,313,14,40).
operation(15,314,4,39).
operation(15,315,6,42).
operation(15,316,12,38).
operation(15,317,16,12).
operation(15,318,18,27).
operation(15,319,17,40).

%--- Job 16
job(16).
operation(16,320,14,19).
operation(16,321,1,27).
operation(16,322,8,39).
operation(16,323,12,41).
operation(16,324,5,45).
operation(16,325,11,40).
operation(16,326,10,46).
operation(16,327,6,48).
operation(16,328,7,37).
operation(16,329,3,30).
operation(16,330,17,31).
operation(16,331,4,16).
operation(16,332,18,29).
operation(16,333,15,44).
operation(16,334,0,41).
operation(16,335,16,35).
operation(16,336,13,47).
operation(16,337,9,21).
operation(16,338,2,10).
operation(16,339,19,48).

%--- Job 17
job(17).
operation(17,340,18,38).
operation(17,341,0,27).
operation(17,342,13,32).
operation(17,343,9,30).
operation(17,344,7,17).
operation(17,345,14,21).
operation(17,346,1,14).
operation(17,347,4,37).
operation(17,348,17,15).
operation(17,349,16,31).
operation(17,350,5,27).
operation(17,351,10,25).
operation(17,352,15,41).
operation(17,353,11,48).
operation(17,354,3,48).
operation(17,355,6,36).
operation(17,356,2,30).
operation(17,357,12,45).
operation(17,358,8,26).
operation(17,359,19,17).

%--- Job 18
job(18).
operation(18,360,1,17).
operation(18,361,10,40).
operation(18,362,9,16).
operation(18,363,5,36).
operation(18,364,4,34).
operation(18,365,16,47).
operation(18,366,19,14).
operation(18,367,0,24).
operation(18,368,18,10).
operation(18,369,6,14).
operation(18,370,13,14).
operation(18,371,3,30).
operation(18,372,12,23).
operation(18,373,2,37).
operation(18,374,17,11).
operation(18,375,11,23).
operation(18,376,8,40).
operation(18,377,15,15).
operation(18,378,14,10).
operation(18,379,7,46).

%--- Job 19
job(19).
operation(19,380,14,37).
operation(19,381,10,28).
operation(19,382,13,13).
operation(19,383,0,28).
operation(19,384,2,18).
operation(19,385,1,43).
operation(19,386,16,46).
operation(19,387,8,39).
operation(19,388,3,30).
operation(19,389,12,15).
operation(19,390,11,38).
operation(19,391,17,38).
operation(19,392,18,45).
operation(19,393,19,44).
operation(19,394,9,16).
operation(19,395,15,29).
operation(19,396,5,33).
operation(19,397,6,20).
operation(19,398,7,35).
operation(19,399,4,34).

