% ========= Metadata =========
   meta(name,yn2).
   meta(num_jobs,20).
   meta(num_machines,20).
   meta(num_operations,400).
   meta(upper_bound,904).
   meta(lower_bound,870).
% ==========================


machine(0..20).

%--- Job 0
job(0).
operation(0,0,17,15).
operation(0,1,2,28).
operation(0,2,11,10).
operation(0,3,4,46).
operation(0,4,12,19).
operation(0,5,13,13).
operation(0,6,7,18).
operation(0,7,0,14).
operation(0,8,3,11).
operation(0,9,15,21).
operation(0,10,18,30).
operation(0,11,10,29).
operation(0,12,14,16).
operation(0,13,8,41).
operation(0,14,1,40).
operation(0,15,6,38).
operation(0,16,19,28).
operation(0,17,5,39).
operation(0,18,9,39).
operation(0,19,16,28).

%--- Job 1
job(1).
operation(1,20,8,32).
operation(1,21,6,46).
operation(1,22,14,35).
operation(1,23,5,14).
operation(1,24,10,44).
operation(1,25,2,20).
operation(1,26,11,12).
operation(1,27,19,23).
operation(1,28,13,22).
operation(1,29,18,15).
operation(1,30,3,35).
operation(1,31,4,27).
operation(1,32,16,26).
operation(1,33,1,27).
operation(1,34,0,23).
operation(1,35,15,27).
operation(1,36,17,31).
operation(1,37,12,31).
operation(1,38,7,31).
operation(1,39,9,24).

%--- Job 2
job(2).
operation(2,40,4,34).
operation(2,41,3,44).
operation(2,42,8,43).
operation(2,43,17,32).
operation(2,44,0,35).
operation(2,45,14,34).
operation(2,46,1,21).
operation(2,47,10,46).
operation(2,48,13,15).
operation(2,49,6,10).
operation(2,50,18,24).
operation(2,51,9,37).
operation(2,52,11,38).
operation(2,53,7,41).
operation(2,54,16,34).
operation(2,55,5,32).
operation(2,56,15,11).
operation(2,57,2,36).
operation(2,58,12,45).
operation(2,59,19,23).

%--- Job 3
job(3).
operation(3,60,4,34).
operation(3,61,10,23).
operation(3,62,3,41).
operation(3,63,6,10).
operation(3,64,18,40).
operation(3,65,12,46).
operation(3,66,2,27).
operation(3,67,15,13).
operation(3,68,19,20).
operation(3,69,7,40).
operation(3,70,13,28).
operation(3,71,5,44).
operation(3,72,9,34).
operation(3,73,14,21).
operation(3,74,17,27).
operation(3,75,1,12).
operation(3,76,8,37).
operation(3,77,0,30).
operation(3,78,16,48).
operation(3,79,11,34).

%--- Job 4
job(4).
operation(4,80,19,22).
operation(4,81,1,14).
operation(4,82,5,22).
operation(4,83,9,10).
operation(4,84,7,45).
operation(4,85,16,38).
operation(4,86,11,32).
operation(4,87,12,38).
operation(4,88,14,16).
operation(4,89,8,20).
operation(4,90,4,12).
operation(4,91,2,40).
operation(4,92,15,33).
operation(4,93,13,35).
operation(4,94,17,32).
operation(4,95,18,15).
operation(4,96,10,31).
operation(4,97,0,49).
operation(4,98,6,19).
operation(4,99,3,33).

%--- Job 5
job(5).
operation(5,100,13,32).
operation(5,101,2,37).
operation(5,102,3,28).
operation(5,103,7,16).
operation(5,104,12,40).
operation(5,105,14,37).
operation(5,106,8,10).
operation(5,107,19,20).
operation(5,108,6,17).
operation(5,109,16,48).
operation(5,110,11,44).
operation(5,111,4,29).
operation(5,112,0,44).
operation(5,113,5,48).
operation(5,114,9,21).
operation(5,115,17,31).
operation(5,116,1,36).
operation(5,117,10,43).
operation(5,118,15,20).
operation(5,119,18,43).

%--- Job 6
job(6).
operation(6,120,9,13).
operation(6,121,5,22).
operation(6,122,18,33).
operation(6,123,16,28).
operation(6,124,12,39).
operation(6,125,3,16).
operation(6,126,2,34).
operation(6,127,10,20).
operation(6,128,4,47).
operation(6,129,11,43).
operation(6,130,1,44).
operation(6,131,17,29).
operation(6,132,6,22).
operation(6,133,13,14).
operation(6,134,14,28).
operation(6,135,15,44).
operation(6,136,8,33).
operation(6,137,0,28).
operation(6,138,7,14).
operation(6,139,19,40).

%--- Job 7
job(7).
operation(7,140,9,19).
operation(7,141,6,49).
operation(7,142,1,11).
operation(7,143,5,13).
operation(7,144,2,47).
operation(7,145,7,22).
operation(7,146,16,27).
operation(7,147,12,26).
operation(7,148,13,47).
operation(7,149,17,37).
operation(7,150,10,19).
operation(7,151,18,43).
operation(7,152,19,41).
operation(7,153,8,34).
operation(7,154,15,21).
operation(7,155,4,30).
operation(7,156,11,32).
operation(7,157,14,45).
operation(7,158,0,32).
operation(7,159,3,22).

%--- Job 8
job(8).
operation(8,160,7,30).
operation(8,161,12,18).
operation(8,162,8,41).
operation(8,163,0,34).
operation(8,164,13,22).
operation(8,165,10,11).
operation(8,166,9,29).
operation(8,167,18,37).
operation(8,168,2,30).
operation(8,169,17,25).
operation(8,170,3,27).
operation(8,171,5,31).
operation(8,172,6,16).
operation(8,173,15,20).
operation(8,174,14,26).
operation(8,175,1,14).
operation(8,176,11,24).
operation(8,177,4,43).
operation(8,178,19,22).
operation(8,179,16,22).

%--- Job 9
job(9).
operation(9,180,16,30).
operation(9,181,7,31).
operation(9,182,15,15).
operation(9,183,6,13).
operation(9,184,18,47).
operation(9,185,19,18).
operation(9,186,9,33).
operation(9,187,11,30).
operation(9,188,17,46).
operation(9,189,4,48).
operation(9,190,10,42).
operation(9,191,2,18).
operation(9,192,1,16).
operation(9,193,0,25).
operation(9,194,14,43).
operation(9,195,13,21).
operation(9,196,3,27).
operation(9,197,12,14).
operation(9,198,5,48).
operation(9,199,8,39).

%--- Job 10
job(10).
operation(10,200,18,21).
operation(10,201,17,18).
operation(10,202,12,20).
operation(10,203,15,28).
operation(10,204,13,20).
operation(10,205,4,36).
operation(10,206,16,24).
operation(10,207,19,35).
operation(10,208,7,22).
operation(10,209,3,36).
operation(10,210,6,39).
operation(10,211,10,34).
operation(10,212,11,49).
operation(10,213,0,36).
operation(10,214,1,38).
operation(10,215,8,46).
operation(10,216,9,44).
operation(10,217,5,13).
operation(10,218,2,26).
operation(10,219,14,32).

%--- Job 11
job(11).
operation(11,220,9,11).
operation(11,221,1,10).
operation(11,222,2,41).
operation(11,223,11,10).
operation(11,224,13,26).
operation(11,225,0,26).
operation(11,226,12,13).
operation(11,227,10,35).
operation(11,228,6,22).
operation(11,229,5,11).
operation(11,230,7,24).
operation(11,231,19,33).
operation(11,232,3,11).
operation(11,233,14,34).
operation(11,234,17,11).
operation(11,235,4,22).
operation(11,236,18,12).
operation(11,237,8,17).
operation(11,238,15,39).
operation(11,239,16,24).

%--- Job 12
job(12).
operation(12,240,1,43).
operation(12,241,15,28).
operation(12,242,2,49).
operation(12,243,14,34).
operation(12,244,4,46).
operation(12,245,12,29).
operation(12,246,18,31).
operation(12,247,19,40).
operation(12,248,13,24).
operation(12,249,11,47).
operation(12,250,5,15).
operation(12,251,0,26).
operation(12,252,7,40).
operation(12,253,17,46).
operation(12,254,8,18).
operation(12,255,10,16).
operation(12,256,16,14).
operation(12,257,3,21).
operation(12,258,9,41).
operation(12,259,6,26).

%--- Job 13
job(13).
operation(13,260,16,14).
operation(13,261,6,47).
operation(13,262,17,49).
operation(13,263,10,16).
operation(13,264,3,31).
operation(13,265,12,43).
operation(13,266,4,20).
operation(13,267,8,25).
operation(13,268,14,10).
operation(13,269,18,49).
operation(13,270,7,32).
operation(13,271,0,36).
operation(13,272,9,19).
operation(13,273,2,23).
operation(13,274,15,20).
operation(13,275,5,15).
operation(13,276,13,34).
operation(13,277,19,33).
operation(13,278,11,37).
operation(13,279,1,48).

%--- Job 14
job(14).
operation(14,280,4,31).
operation(14,281,11,42).
operation(14,282,7,24).
operation(14,283,6,13).
operation(14,284,0,30).
operation(14,285,14,24).
operation(14,286,17,19).
operation(14,287,19,34).
operation(14,288,16,35).
operation(14,289,10,42).
operation(14,290,15,10).
operation(14,291,13,40).
operation(14,292,2,39).
operation(14,293,8,42).
operation(14,294,5,38).
operation(14,295,9,12).
operation(14,296,1,27).
operation(14,297,18,40).
operation(14,298,12,19).
operation(14,299,3,27).

%--- Job 15
job(15).
operation(15,300,6,39).
operation(15,301,5,41).
operation(15,302,13,45).
operation(15,303,15,40).
operation(15,304,2,46).
operation(15,305,9,48).
operation(15,306,7,37).
operation(15,307,0,30).
operation(15,308,1,31).
operation(15,309,12,16).
operation(15,310,19,29).
operation(15,311,14,44).
operation(15,312,3,41).
operation(15,313,8,35).
operation(15,314,10,47).
operation(15,315,11,21).
operation(15,316,4,10).
operation(15,317,16,48).
operation(15,318,18,38).
operation(15,319,17,27).

%--- Job 16
job(16).
operation(16,320,16,32).
operation(16,321,1,30).
operation(16,322,8,17).
operation(16,323,18,21).
operation(16,324,0,14).
operation(16,325,17,37).
operation(16,326,10,15).
operation(16,327,12,31).
operation(16,328,7,27).
operation(16,329,3,25).
operation(16,330,5,41).
operation(16,331,4,48).
operation(16,332,13,48).
operation(16,333,6,36).
operation(16,334,2,30).
operation(16,335,15,45).
operation(16,336,11,26).
operation(16,337,9,17).
operation(16,338,14,17).
operation(16,339,19,40).

%--- Job 17
job(17).
operation(17,340,18,16).
operation(17,341,17,36).
operation(17,342,4,34).
operation(17,343,2,47).
operation(17,344,10,14).
operation(17,345,15,24).
operation(17,346,1,10).
operation(17,347,3,14).
operation(17,348,7,14).
operation(17,349,12,30).
operation(17,350,5,23).
operation(17,351,9,37).
operation(17,352,8,11).
operation(17,353,14,23).
operation(17,354,11,40).
operation(17,355,6,15).
operation(17,356,16,10).
operation(17,357,0,46).
operation(17,358,13,37).
operation(17,359,19,28).

%--- Job 18
job(18).
operation(18,360,17,13).
operation(18,361,13,28).
operation(18,362,11,18).
operation(18,363,16,43).
operation(18,364,7,46).
operation(18,365,8,39).
operation(18,366,3,30).
operation(18,367,5,15).
operation(18,368,4,38).
operation(18,369,2,38).
operation(18,370,14,45).
operation(18,371,0,44).
operation(18,372,10,16).
operation(18,373,6,29).
operation(18,374,12,33).
operation(18,375,1,20).
operation(18,376,19,35).
operation(18,377,15,34).
operation(18,378,9,16).
operation(18,379,18,40).

%--- Job 19
job(19).
operation(19,380,17,14).
operation(19,381,2,30).
operation(19,382,0,27).
operation(19,383,15,47).
operation(19,384,18,43).
operation(19,385,3,17).
operation(19,386,14,13).
operation(19,387,6,43).
operation(19,388,7,45).
operation(19,389,12,32).
operation(19,390,13,13).
operation(19,391,16,48).
operation(19,392,1,10).
operation(19,393,4,14).
operation(19,394,10,42).
operation(19,395,9,38).
operation(19,396,5,43).
operation(19,397,19,22).
operation(19,398,11,43).
operation(19,399,8,23).

