% ========= Metadata =========
   meta(name,yn3).
   meta(num_jobs,20).
   meta(num_machines,20).
   meta(num_operations,400).
   meta(upper_bound,892).
   meta(lower_bound,859).
% ==========================


machine(0..20).

%--- Job 0
job(0).
operation(0,0,13,47).
operation(0,1,16,21).
operation(0,2,17,27).
operation(0,3,8,46).
operation(0,4,1,27).
operation(0,5,14,39).
operation(0,6,19,24).
operation(0,7,4,34).
operation(0,8,7,27).
operation(0,9,3,36).
operation(0,10,6,11).
operation(0,11,5,32).
operation(0,12,0,13).
operation(0,13,9,40).
operation(0,14,2,40).
operation(0,15,15,20).
operation(0,16,18,45).
operation(0,17,10,23).
operation(0,18,12,36).
operation(0,19,11,31).

%--- Job 1
job(1).
operation(1,20,1,40).
operation(1,21,11,20).
operation(1,22,12,27).
operation(1,23,6,32).
operation(1,24,16,26).
operation(1,25,13,36).
operation(1,26,10,37).
operation(1,27,7,26).
operation(1,28,3,22).
operation(1,29,4,44).
operation(1,30,18,18).
operation(1,31,2,11).
operation(1,32,17,15).
operation(1,33,9,27).
operation(1,34,15,39).
operation(1,35,5,25).
operation(1,36,8,16).
operation(1,37,14,13).
operation(1,38,0,49).
operation(1,39,19,25).

%--- Job 2
job(2).
operation(2,40,9,40).
operation(2,41,8,11).
operation(2,42,14,47).
operation(2,43,2,35).
operation(2,44,13,41).
operation(2,45,7,37).
operation(2,46,1,37).
operation(2,47,18,28).
operation(2,48,6,42).
operation(2,49,3,23).
operation(2,50,10,41).
operation(2,51,5,33).
operation(2,52,17,25).
operation(2,53,0,19).
operation(2,54,19,15).
operation(2,55,16,42).
operation(2,56,12,37).
operation(2,57,11,34).
operation(2,58,4,10).
operation(2,59,15,41).

%--- Job 3
job(3).
operation(3,60,2,28).
operation(3,61,4,18).
operation(3,62,11,42).
operation(3,63,5,26).
operation(3,64,13,27).
operation(3,65,6,24).
operation(3,66,12,41).
operation(3,67,0,25).
operation(3,68,1,27).
operation(3,69,7,40).
operation(3,70,17,40).
operation(3,71,14,49).
operation(3,72,10,33).
operation(3,73,3,30).
operation(3,74,15,34).
operation(3,75,16,17).
operation(3,76,8,49).
operation(3,77,9,21).
operation(3,78,18,35).
operation(3,79,19,42).

%--- Job 4
job(4).
operation(4,80,7,26).
operation(4,81,9,27).
operation(4,82,4,25).
operation(4,83,3,42).
operation(4,84,19,28).
operation(4,85,15,22).
operation(4,86,17,34).
operation(4,87,0,15).
operation(4,88,6,46).
operation(4,89,1,34).
operation(4,90,12,47).
operation(4,91,2,16).
operation(4,92,16,34).
operation(4,93,10,31).
operation(4,94,14,24).
operation(4,95,5,43).
operation(4,96,13,45).
operation(4,97,11,47).
operation(4,98,8,18).
operation(4,99,18,15).

%--- Job 5
job(5).
operation(5,100,4,30).
operation(5,101,8,48).
operation(5,102,1,46).
operation(5,103,15,13).
operation(5,104,9,20).
operation(5,105,7,31).
operation(5,106,14,20).
operation(5,107,2,20).
operation(5,108,16,34).
operation(5,109,19,38).
operation(5,110,18,12).
operation(5,111,17,11).
operation(5,112,11,47).
operation(5,113,5,19).
operation(5,114,0,35).
operation(5,115,13,17).
operation(5,116,10,23).
operation(5,117,12,11).
operation(5,118,3,22).
operation(5,119,6,11).

%--- Job 6
job(6).
operation(6,120,3,27).
operation(6,121,2,11).
operation(6,122,5,17).
operation(6,123,0,43).
operation(6,124,1,25).
operation(6,125,15,24).
operation(6,126,18,36).
operation(6,127,8,12).
operation(6,128,9,21).
operation(6,129,13,44).
operation(6,130,10,17).
operation(6,131,17,41).
operation(6,132,16,34).
operation(6,133,11,14).
operation(6,134,12,45).
operation(6,135,7,45).
operation(6,136,14,27).
operation(6,137,6,47).
operation(6,138,4,47).
operation(6,139,19,11).

%--- Job 7
job(7).
operation(7,140,5,27).
operation(7,141,4,41).
operation(7,142,17,44).
operation(7,143,16,16).
operation(7,144,11,42).
operation(7,145,10,29).
operation(7,146,3,23).
operation(7,147,2,15).
operation(7,148,0,22).
operation(7,149,13,28).
operation(7,150,7,16).
operation(7,151,14,39).
operation(7,152,9,21).
operation(7,153,12,15).
operation(7,154,18,32).
operation(7,155,15,36).
operation(7,156,1,29).
operation(7,157,8,18).
operation(7,158,6,39).
operation(7,159,19,33).

%--- Job 8
job(8).
operation(8,160,4,44).
operation(8,161,19,38).
operation(8,162,11,24).
operation(8,163,17,21).
operation(8,164,13,34).
operation(8,165,15,11).
operation(8,166,10,16).
operation(8,167,8,43).
operation(8,168,16,41).
operation(8,169,7,45).
operation(8,170,3,37).
operation(8,171,9,10).
operation(8,172,6,36).
operation(8,173,18,31).
operation(8,174,2,17).
operation(8,175,14,28).
operation(8,176,12,43).
operation(8,177,0,22).
operation(8,178,1,25).
operation(8,179,5,15).

%--- Job 9
job(9).
operation(9,180,7,40).
operation(9,181,15,23).
operation(9,182,4,37).
operation(9,183,2,12).
operation(9,184,8,28).
operation(9,185,12,19).
operation(9,186,10,30).
operation(9,187,17,40).
operation(9,188,13,20).
operation(9,189,18,11).
operation(9,190,5,23).
operation(9,191,16,46).
operation(9,192,3,40).
operation(9,193,1,37).
operation(9,194,14,17).
operation(9,195,0,16).
operation(9,196,11,31).
operation(9,197,6,15).
operation(9,198,9,10).
operation(9,199,19,22).

%--- Job 10
job(10).
operation(10,200,5,10).
operation(10,201,1,37).
operation(10,202,15,22).
operation(10,203,2,28).
operation(10,204,6,10).
operation(10,205,9,21).
operation(10,206,19,38).
operation(10,207,16,35).
operation(10,208,7,34).
operation(10,209,0,13).
operation(10,210,14,33).
operation(10,211,11,16).
operation(10,212,4,26).
operation(10,213,3,20).
operation(10,214,17,10).
operation(10,215,18,37).
operation(10,216,13,21).
operation(10,217,8,31).
operation(10,218,10,27).
operation(10,219,12,23).

%--- Job 11
job(11).
operation(11,220,16,32).
operation(11,221,6,32).
operation(11,222,7,20).
operation(11,223,1,14).
operation(11,224,0,11).
operation(11,225,19,27).
operation(11,226,3,21).
operation(11,227,18,32).
operation(11,228,10,33).
operation(11,229,13,13).
operation(11,230,17,36).
operation(11,231,8,25).
operation(11,232,4,32).
operation(11,233,5,41).
operation(11,234,15,44).
operation(11,235,2,32).
operation(11,236,14,12).
operation(11,237,9,32).
operation(11,238,12,10).
operation(11,239,11,28).

%--- Job 12
job(12).
operation(12,240,7,28).
operation(12,241,9,33).
operation(12,242,11,35).
operation(12,243,17,44).
operation(12,244,4,43).
operation(12,245,16,35).
operation(12,246,12,31).
operation(12,247,2,14).
operation(12,248,6,48).
operation(12,249,8,40).
operation(12,250,15,28).
operation(12,251,0,31).
operation(12,252,3,22).
operation(12,253,5,30).
operation(12,254,13,27).
operation(12,255,10,24).
operation(12,256,18,47).
operation(12,257,14,38).
operation(12,258,1,46).
operation(12,259,19,22).

%--- Job 13
job(13).
operation(13,260,12,33).
operation(13,261,6,33).
operation(13,262,14,38).
operation(13,263,9,15).
operation(13,264,10,16).
operation(13,265,13,24).
operation(13,266,1,30).
operation(13,267,8,18).
operation(13,268,7,46).
operation(13,269,2,30).
operation(13,270,17,37).
operation(13,271,11,24).
operation(13,272,5,13).
operation(13,273,3,14).
operation(13,274,18,11).
operation(13,275,16,38).
operation(13,276,0,31).
operation(13,277,4,24).
operation(13,278,19,42).
operation(13,279,15,30).

%--- Job 14
job(14).
operation(14,280,10,15).
operation(14,281,16,12).
operation(14,282,6,43).
operation(14,283,18,27).
operation(14,284,0,24).
operation(14,285,9,20).
operation(14,286,3,41).
operation(14,287,2,22).
operation(14,288,12,41).
operation(14,289,11,30).
operation(14,290,5,26).
operation(14,291,4,24).
operation(14,292,7,45).
operation(14,293,13,46).
operation(14,294,14,22).
operation(14,295,15,11).
operation(14,296,8,20).
operation(14,297,1,42).
operation(14,298,19,11).
operation(14,299,17,49).

%--- Job 15
job(15).
operation(15,300,4,14).
operation(15,301,19,30).
operation(15,302,17,15).
operation(15,303,7,17).
operation(15,304,8,34).
operation(15,305,2,48).
operation(15,306,3,45).
operation(15,307,14,16).
operation(15,308,12,23).
operation(15,309,16,29).
operation(15,310,13,28).
operation(15,311,6,28).
operation(15,312,18,24).
operation(15,313,10,21).
operation(15,314,5,37).
operation(15,315,1,38).
operation(15,316,11,31).
operation(15,317,0,29).
operation(15,318,9,42).
operation(15,319,15,22).

%--- Job 16
job(16).
operation(16,320,15,41).
operation(16,321,17,19).
operation(16,322,5,37).
operation(16,323,7,36).
operation(16,324,8,47).
operation(16,325,12,49).
operation(16,326,11,29).
operation(16,327,6,18).
operation(16,328,9,33).
operation(16,329,10,30).
operation(16,330,0,49).
operation(16,331,16,37).
operation(16,332,3,11).
operation(16,333,2,46).
operation(16,334,14,36).
operation(16,335,18,35).
operation(16,336,13,45).
operation(16,337,1,31).
operation(16,338,4,33).
operation(16,339,19,18).

%--- Job 17
job(17).
operation(17,340,9,42).
operation(17,341,4,11).
operation(17,342,15,28).
operation(17,343,18,48).
operation(17,344,6,22).
operation(17,345,8,15).
operation(17,346,1,37).
operation(17,347,11,36).
operation(17,348,3,26).
operation(17,349,19,21).
operation(17,350,2,48).
operation(17,351,16,17).
operation(17,352,12,30).
operation(17,353,10,27).
operation(17,354,13,35).
operation(17,355,17,20).
operation(17,356,0,18).
operation(17,357,7,14).
operation(17,358,14,20).
operation(17,359,5,41).

%--- Job 18
job(18).
operation(18,360,19,35).
operation(18,361,17,19).
operation(18,362,16,20).
operation(18,363,15,36).
operation(18,364,1,15).
operation(18,365,3,46).
operation(18,366,4,13).
operation(18,367,8,42).
operation(18,368,18,19).
operation(18,369,5,37).
operation(18,370,2,10).
operation(18,371,13,44).
operation(18,372,10,30).
operation(18,373,11,20).
operation(18,374,14,42).
operation(18,375,6,35).
operation(18,376,0,26).
operation(18,377,9,29).
operation(18,378,7,21).
operation(18,379,12,42).

%--- Job 19
job(19).
operation(19,380,17,33).
operation(19,381,3,11).
operation(19,382,7,42).
operation(19,383,16,45).
operation(19,384,9,29).
operation(19,385,0,27).
operation(19,386,5,15).
operation(19,387,13,37).
operation(19,388,2,32).
operation(19,389,11,25).
operation(19,390,14,21).
operation(19,391,8,49).
operation(19,392,19,34).
operation(19,393,1,31).
operation(19,394,15,35).
operation(19,395,6,32).
operation(19,396,4,20).
operation(19,397,18,30).
operation(19,398,10,24).
operation(19,399,12,29).

