% ========= Metadata =========
   meta(name,yn4).
   meta(num_jobs,20).
   meta(num_machines,20).
   meta(num_operations,400).
   meta(upper_bound,968).
   meta(lower_bound,929).
% ==========================


machine(0..20).

%--- Job 0
job(0).
operation(0,0,16,34).
operation(0,1,17,38).
operation(0,2,0,21).
operation(0,3,6,15).
operation(0,4,15,42).
operation(0,5,8,17).
operation(0,6,7,41).
operation(0,7,18,10).
operation(0,8,10,26).
operation(0,9,11,24).
operation(0,10,1,31).
operation(0,11,19,25).
operation(0,12,14,31).
operation(0,13,13,33).
operation(0,14,4,35).
operation(0,15,9,30).
operation(0,16,3,16).
operation(0,17,12,16).
operation(0,18,5,30).
operation(0,19,2,13).

%--- Job 1
job(1).
operation(1,20,5,41).
operation(1,21,11,33).
operation(1,22,6,15).
operation(1,23,16,38).
operation(1,24,0,40).
operation(1,25,14,38).
operation(1,26,3,37).
operation(1,27,1,20).
operation(1,28,13,22).
operation(1,29,4,34).
operation(1,30,7,16).
operation(1,31,17,39).
operation(1,32,9,15).
operation(1,33,2,19).
operation(1,34,10,36).
operation(1,35,12,39).
operation(1,36,18,26).
operation(1,37,8,19).
operation(1,38,15,39).
operation(1,39,19,34).

%--- Job 2
job(2).
operation(2,40,17,34).
operation(2,41,1,12).
operation(2,42,16,10).
operation(2,43,7,47).
operation(2,44,13,28).
operation(2,45,15,27).
operation(2,46,0,19).
operation(2,47,6,34).
operation(2,48,19,33).
operation(2,49,12,40).
operation(2,50,9,37).
operation(2,51,14,24).
operation(2,52,8,15).
operation(2,53,10,34).
operation(2,54,2,44).
operation(2,55,3,37).
operation(2,56,18,22).
operation(2,57,11,31).
operation(2,58,4,39).
operation(2,59,5,26).

%--- Job 3
job(3).
operation(3,60,5,48).
operation(3,61,7,46).
operation(3,62,16,47).
operation(3,63,10,45).
operation(3,64,14,15).
operation(3,65,8,25).
operation(3,66,0,34).
operation(3,67,3,24).
operation(3,68,12,35).
operation(3,69,18,15).
operation(3,70,2,48).
operation(3,71,13,19).
operation(3,72,11,10).
operation(3,73,1,48).
operation(3,74,17,16).
operation(3,75,15,28).
operation(3,76,4,18).
operation(3,77,6,17).
operation(3,78,9,44).
operation(3,79,19,41).

%--- Job 4
job(4).
operation(4,80,12,47).
operation(4,81,3,23).
operation(4,82,9,48).
operation(4,83,16,45).
operation(4,84,14,39).
operation(4,85,6,42).
operation(4,86,8,32).
operation(4,87,15,11).
operation(4,88,13,16).
operation(4,89,5,14).
operation(4,90,11,19).
operation(4,91,1,46).
operation(4,92,19,10).
operation(4,93,10,17).
operation(4,94,7,41).
operation(4,95,2,47).
operation(4,96,17,32).
operation(4,97,4,17).
operation(4,98,0,21).
operation(4,99,18,17).

%--- Job 5
job(5).
operation(5,100,18,14).
operation(5,101,16,20).
operation(5,102,1,18).
operation(5,103,12,14).
operation(5,104,13,10).
operation(5,105,6,16).
operation(5,106,5,24).
operation(5,107,4,18).
operation(5,108,0,24).
operation(5,109,11,18).
operation(5,110,15,42).
operation(5,111,19,13).
operation(5,112,3,23).
operation(5,113,14,40).
operation(5,114,9,48).
operation(5,115,8,12).
operation(5,116,2,24).
operation(5,117,10,23).
operation(5,118,7,45).
operation(5,119,17,30).

%--- Job 6
job(6).
operation(6,120,0,27).
operation(6,121,12,15).
operation(6,122,4,26).
operation(6,123,13,19).
operation(6,124,17,14).
operation(6,125,5,49).
operation(6,126,7,16).
operation(6,127,18,28).
operation(6,128,16,16).
operation(6,129,8,20).
operation(6,130,9,36).
operation(6,131,2,21).
operation(6,132,14,30).
operation(6,133,3,36).
operation(6,134,1,17).
operation(6,135,15,22).
operation(6,136,6,43).
operation(6,137,11,32).
operation(6,138,10,23).
operation(6,139,19,17).

%--- Job 7
job(7).
operation(7,140,0,32).
operation(7,141,16,15).
operation(7,142,17,12).
operation(7,143,7,46).
operation(7,144,3,37).
operation(7,145,18,43).
operation(7,146,11,40).
operation(7,147,13,43).
operation(7,148,9,48).
operation(7,149,4,36).
operation(7,150,15,24).
operation(7,151,8,25).
operation(7,152,1,33).
operation(7,153,14,32).
operation(7,154,5,26).
operation(7,155,6,37).
operation(7,156,12,24).
operation(7,157,10,24).
operation(7,158,2,15).
operation(7,159,19,22).

%--- Job 8
job(8).
operation(8,160,10,34).
operation(8,161,6,33).
operation(8,162,15,25).
operation(8,163,8,46).
operation(8,164,0,20).
operation(8,165,18,33).
operation(8,166,4,19).
operation(8,167,13,45).
operation(8,168,2,47).
operation(8,169,1,32).
operation(8,170,3,12).
operation(8,171,11,29).
operation(8,172,16,29).
operation(8,173,5,46).
operation(8,174,12,17).
operation(8,175,7,48).
operation(8,176,14,39).
operation(8,177,17,40).
operation(8,178,19,41).
operation(8,179,9,37).

%--- Job 9
job(9).
operation(9,180,13,26).
operation(9,181,3,47).
operation(9,182,5,44).
operation(9,183,6,49).
operation(9,184,1,22).
operation(9,185,17,12).
operation(9,186,10,28).
operation(9,187,19,36).
operation(9,188,9,27).
operation(9,189,4,25).
operation(9,190,14,48).
operation(9,191,7,11).
operation(9,192,16,49).
operation(9,193,12,24).
operation(9,194,11,48).
operation(9,195,2,19).
operation(9,196,0,47).
operation(9,197,18,49).
operation(9,198,8,46).
operation(9,199,15,36).

%--- Job 10
job(10).
operation(10,200,13,23).
operation(10,201,18,48).
operation(10,202,14,15).
operation(10,203,0,42).
operation(10,204,3,36).
operation(10,205,8,15).
operation(10,206,6,32).
operation(10,207,10,18).
operation(10,208,1,45).
operation(10,209,15,23).
operation(10,210,11,45).
operation(10,211,2,13).
operation(10,212,17,21).
operation(10,213,12,32).
operation(10,214,7,44).
operation(10,215,5,25).
operation(10,216,19,34).
operation(10,217,16,22).
operation(10,218,9,11).
operation(10,219,4,43).

%--- Job 11
job(11).
operation(11,220,17,37).
operation(11,221,7,49).
operation(11,222,15,45).
operation(11,223,2,28).
operation(11,224,9,15).
operation(11,225,8,35).
operation(11,226,12,29).
operation(11,227,13,44).
operation(11,228,1,26).
operation(11,229,4,25).
operation(11,230,5,30).
operation(11,231,3,39).
operation(11,232,0,15).
operation(11,233,14,28).
operation(11,234,18,23).
operation(11,235,6,42).
operation(11,236,11,33).
operation(11,237,16,45).
operation(11,238,10,10).
operation(11,239,19,20).

%--- Job 12
job(12).
operation(12,240,0,10).
operation(12,241,6,37).
operation(12,242,3,15).
operation(12,243,13,13).
operation(12,244,10,11).
operation(12,245,2,49).
operation(12,246,1,28).
operation(12,247,14,28).
operation(12,248,15,13).
operation(12,249,8,29).
operation(12,250,12,21).
operation(12,251,16,32).
operation(12,252,11,21).
operation(12,253,4,48).
operation(12,254,5,11).
operation(12,255,17,26).
operation(12,256,9,33).
operation(12,257,18,22).
operation(12,258,7,21).
operation(12,259,19,49).

%--- Job 13
job(13).
operation(13,260,18,38).
operation(13,261,0,41).
operation(13,262,4,30).
operation(13,263,13,43).
operation(13,264,6,11).
operation(13,265,2,43).
operation(13,266,14,27).
operation(13,267,3,26).
operation(13,268,9,30).
operation(13,269,15,19).
operation(13,270,16,36).
operation(13,271,1,31).
operation(13,272,17,47).
operation(13,273,5,41).
operation(13,274,10,34).
operation(13,275,8,40).
operation(13,276,12,32).
operation(13,277,7,13).
operation(13,278,11,18).
operation(13,279,19,27).

%--- Job 14
job(14).
operation(14,280,6,24).
operation(14,281,5,30).
operation(14,282,7,10).
operation(14,283,10,35).
operation(14,284,8,28).
operation(14,285,16,43).
operation(14,286,19,12).
operation(14,287,9,44).
operation(14,288,15,15).
operation(14,289,3,15).
operation(14,290,2,35).
operation(14,291,18,43).
operation(14,292,0,38).
operation(14,293,4,16).
operation(14,294,1,29).
operation(14,295,17,40).
operation(14,296,14,49).
operation(14,297,13,38).
operation(14,298,12,16).
operation(14,299,11,30).

%--- Job 15
job(15).
operation(15,300,3,48).
operation(15,301,6,35).
operation(15,302,13,43).
operation(15,303,2,37).
operation(15,304,17,18).
operation(15,305,5,27).
operation(15,306,9,27).
operation(15,307,7,41).
operation(15,308,1,22).
operation(15,309,15,28).
operation(15,310,16,18).
operation(15,311,10,37).
operation(15,312,18,48).
operation(15,313,4,10).
operation(15,314,8,14).
operation(15,315,11,18).
operation(15,316,14,43).
operation(15,317,0,48).
operation(15,318,12,12).
operation(15,319,19,49).

%--- Job 16
job(16).
operation(16,320,0,13).
operation(16,321,13,38).
operation(16,322,7,34).
operation(16,323,6,42).
operation(16,324,1,36).
operation(16,325,5,45).
operation(16,326,18,24).
operation(16,327,8,35).
operation(16,328,14,26).
operation(16,329,19,30).
operation(16,330,12,47).
operation(16,331,16,24).
operation(16,332,11,47).
operation(16,333,4,40).
operation(16,334,10,43).
operation(16,335,3,16).
operation(16,336,15,10).
operation(16,337,2,12).
operation(16,338,9,39).
operation(16,339,17,22).

%--- Job 17
job(17).
operation(17,340,16,30).
operation(17,341,13,47).
operation(17,342,19,49).
operation(17,343,8,20).
operation(17,344,4,40).
operation(17,345,3,46).
operation(17,346,17,21).
operation(17,347,14,33).
operation(17,348,6,44).
operation(17,349,7,23).
operation(17,350,9,24).
operation(17,351,0,48).
operation(17,352,10,43).
operation(17,353,15,41).
operation(17,354,2,32).
operation(17,355,5,29).
operation(17,356,11,36).
operation(17,357,1,38).
operation(17,358,12,47).
operation(17,359,18,12).

%--- Job 18
job(18).
operation(18,360,13,10).
operation(18,361,5,36).
operation(18,362,12,18).
operation(18,363,16,48).
operation(18,364,0,27).
operation(18,365,14,43).
operation(18,366,10,46).
operation(18,367,6,27).
operation(18,368,7,46).
operation(18,369,19,35).
operation(18,370,11,31).
operation(18,371,2,18).
operation(18,372,8,24).
operation(18,373,3,23).
operation(18,374,17,29).
operation(18,375,18,14).
operation(18,376,9,19).
operation(18,377,1,40).
operation(18,378,15,38).
operation(18,379,4,13).

%--- Job 19
job(19).
operation(19,380,9,45).
operation(19,381,16,44).
operation(19,382,0,43).
operation(19,383,17,31).
operation(19,384,14,35).
operation(19,385,13,17).
operation(19,386,12,42).
operation(19,387,3,14).
operation(19,388,18,37).
operation(19,389,10,39).
operation(19,390,6,48).
operation(19,391,7,38).
operation(19,392,15,26).
operation(19,393,4,49).
operation(19,394,2,28).
operation(19,395,11,35).
operation(19,396,1,42).
operation(19,397,5,24).
operation(19,398,8,44).
operation(19,399,19,38).

